p cnf 00000000000000001914 00000000000000007617
-41 4 0
41 -4 0
-14 -24 -42 0
-14 24 42 0
14 -24 42 0
14 24 -42 0
41 42 0
-1 -4 -43 0
-1 4 43 0
1 -4 43 0
1 4 -43 0
-43 -5 -44 0
-43 5 44 0
43 -5 44 0
43 5 -44 0
-11 -14 -45 0
-11 14 45 0
11 -14 45 0
11 14 -45 0
-45 -15 -46 0
-45 15 46 0
45 -15 46 0
45 15 -46 0
-46 -31 -47 0
-46 31 47 0
46 -31 47 0
46 31 -47 0
-47 -34 -48 0
-47 34 48 0
47 -34 48 0
47 34 -48 0
-48 -35 -49 0
-48 35 49 0
48 -35 49 0
48 35 -49 0
44 49 0
-1 -2 -50 0
-1 2 50 0
1 -2 50 0
1 2 -50 0
-50 -4 -51 0
-50 4 51 0
50 -4 51 0
50 4 -51 0
-51 -5 -52 0
-51 5 52 0
51 -5 52 0
51 5 -52 0
-52 -6 -53 0
-52 6 53 0
52 -6 53 0
52 6 -53 0
-31 -32 -54 0
-31 32 54 0
31 -32 54 0
31 32 -54 0
-54 -34 -55 0
-54 34 55 0
54 -34 55 0
54 34 -55 0
-55 -35 -56 0
-55 35 56 0
55 -35 56 0
55 35 -56 0
-56 -36 -57 0
-56 36 57 0
56 -36 57 0
56 36 -57 0
53 57 0
-1 -3 -58 0
-1 3 58 0
1 -3 58 0
1 3 -58 0
-58 -4 -59 0
-58 4 59 0
58 -4 59 0
58 4 -59 0
-59 -5 -60 0
-59 5 60 0
59 -5 60 0
59 5 -60 0
-60 -7 -61 0
-60 7 61 0
60 -7 61 0
60 7 -61 0
-11 -13 -62 0
-11 13 62 0
11 -13 62 0
11 13 -62 0
-62 -14 -63 0
-62 14 63 0
62 -14 63 0
62 14 -63 0
-63 -15 -64 0
-63 15 64 0
63 -15 64 0
63 15 -64 0
-64 -17 -65 0
-64 17 65 0
64 -17 65 0
64 17 -65 0
-65 -21 -66 0
-65 21 66 0
65 -21 66 0
65 21 -66 0
-66 -23 -67 0
-66 23 67 0
66 -23 67 0
66 23 -67 0
-67 -24 -68 0
-67 24 68 0
67 -24 68 0
67 24 -68 0
-68 -25 -69 0
-68 25 69 0
68 -25 69 0
68 25 -69 0
-69 -27 -70 0
-69 27 70 0
69 -27 70 0
69 27 -70 0
-70 -31 -71 0
-70 31 71 0
70 -31 71 0
70 31 -71 0
-71 -33 -72 0
-71 33 72 0
71 -33 72 0
71 33 -72 0
-72 -34 -73 0
-72 34 73 0
72 -34 73 0
72 34 -73 0
-73 -35 -74 0
-73 35 74 0
73 -35 74 0
73 35 -74 0
-74 -37 -75 0
-74 37 75 0
74 -37 75 0
74 37 -75 0
61 75 0
-2 -3 -76 0
-2 3 76 0
2 -3 76 0
2 3 -76 0
-76 -4 -77 0
-76 4 77 0
76 -4 77 0
76 4 -77 0
-77 -6 -78 0
-77 6 78 0
77 -6 78 0
77 6 -78 0
-78 -7 -79 0
-78 7 79 0
78 -7 79 0
78 7 -79 0
-12 -13 -80 0
-12 13 80 0
12 -13 80 0
12 13 -80 0
-80 -14 -81 0
-80 14 81 0
80 -14 81 0
80 14 -81 0
-81 -16 -82 0
-81 16 82 0
81 -16 82 0
81 16 -82 0
-82 -17 -83 0
-82 17 83 0
82 -17 83 0
82 17 -83 0
79 83 0
-2 -3 -84 0
-2 3 84 0
2 -3 84 0
2 3 -84 0
-84 -6 -85 0
-84 6 85 0
84 -6 85 0
84 6 -85 0
-85 -7 -86 0
-85 7 86 0
85 -7 86 0
85 7 -86 0
-86 -8 -87 0
-86 8 87 0
86 -8 87 0
86 8 -87 0
-22 -23 -88 0
-22 23 88 0
22 -23 88 0
22 23 -88 0
-88 -26 -89 0
-88 26 89 0
88 -26 89 0
88 26 -89 0
-89 -27 -90 0
-89 27 90 0
89 -27 90 0
89 27 -90 0
-90 -28 -91 0
-90 28 91 0
90 -28 91 0
90 28 -91 0
87 91 0
-1 -2 -92 0
-1 2 92 0
1 -2 92 0
1 2 -92 0
-92 -3 -93 0
-92 3 93 0
92 -3 93 0
92 3 -93 0
-93 -5 -94 0
-93 5 94 0
93 -5 94 0
93 5 -94 0
-94 -6 -95 0
-94 6 95 0
94 -6 95 0
94 6 -95 0
-95 -7 -96 0
-95 7 96 0
95 -7 96 0
95 7 -96 0
-96 -8 -97 0
-96 8 97 0
96 -8 97 0
96 8 -97 0
-21 -22 -98 0
-21 22 98 0
21 -22 98 0
21 22 -98 0
-98 -23 -99 0
-98 23 99 0
98 -23 99 0
98 23 -99 0
-99 -25 -100 0
-99 25 100 0
99 -25 100 0
99 25 -100 0
-100 -26 -101 0
-100 26 101 0
100 -26 101 0
100 26 -101 0
-101 -27 -102 0
-101 27 102 0
101 -27 102 0
101 27 -102 0
-102 -28 -103 0
-102 28 103 0
102 -28 103 0
102 28 -103 0
-103 -31 -104 0
-103 31 104 0
103 -31 104 0
103 31 -104 0
-104 -32 -105 0
-104 32 105 0
104 -32 105 0
104 32 -105 0
-105 -33 -106 0
-105 33 106 0
105 -33 106 0
105 33 -106 0
-106 -35 -107 0
-106 35 107 0
106 -35 107 0
106 35 -107 0
-107 -36 -108 0
-107 36 108 0
107 -36 108 0
107 36 -108 0
-108 -37 -109 0
-108 37 109 0
108 -37 109 0
108 37 -109 0
-109 -38 -110 0
-109 38 110 0
109 -38 110 0
109 38 -110 0
97 110 0
-1 -3 -111 0
-1 3 111 0
1 -3 111 0
1 3 -111 0
-111 -9 -112 0
-111 9 112 0
111 -9 112 0
111 9 -112 0
-112 -10 -113 0
-112 10 113 0
112 -10 113 0
112 10 -113 0
-11 -13 -114 0
-11 13 114 0
11 -13 114 0
11 13 -114 0
-114 -19 -115 0
-114 19 115 0
114 -19 115 0
114 19 -115 0
-115 -20 -116 0
-115 20 116 0
115 -20 116 0
115 20 -116 0
-116 -21 -117 0
-116 21 117 0
116 -21 117 0
116 21 -117 0
-117 -23 -118 0
-117 23 118 0
117 -23 118 0
117 23 -118 0
-118 -29 -119 0
-118 29 119 0
118 -29 119 0
118 29 -119 0
-119 -30 -120 0
-119 30 120 0
119 -30 120 0
119 30 -120 0
113 120 0
-1 -3 -121 0
-1 3 121 0
1 -3 121 0
1 3 -121 0
-121 -4 -122 0
-121 4 122 0
121 -4 122 0
121 4 -122 0
-122 -9 -123 0
-122 9 123 0
122 -9 123 0
122 9 -123 0
-123 -10 -124 0
-123 10 124 0
123 -10 124 0
123 10 -124 0
-11 -13 -125 0
-11 13 125 0
11 -13 125 0
11 13 -125 0
-125 -14 -126 0
-125 14 126 0
125 -14 126 0
125 14 -126 0
-126 -19 -127 0
-126 19 127 0
126 -19 127 0
126 19 -127 0
-127 -20 -128 0
-127 20 128 0
127 -20 128 0
127 20 -128 0
-128 -21 -129 0
-128 21 129 0
128 -21 129 0
128 21 -129 0
-129 -23 -130 0
-129 23 130 0
129 -23 130 0
129 23 -130 0
-130 -24 -131 0
-130 24 131 0
130 -24 131 0
130 24 -131 0
-131 -29 -132 0
-131 29 132 0
131 -29 132 0
131 29 -132 0
-132 -30 -133 0
-132 30 133 0
132 -30 133 0
132 30 -133 0
124 133 0
-3 -5 -134 0
-3 5 134 0
3 -5 134 0
3 5 -134 0
-134 -9 -135 0
-134 9 135 0
134 -9 135 0
134 9 -135 0
-135 -10 -136 0
-135 10 136 0
135 -10 136 0
135 10 -136 0
-13 -15 -137 0
-13 15 137 0
13 -15 137 0
13 15 -137 0
-137 -19 -138 0
-137 19 138 0
137 -19 138 0
137 19 -138 0
-138 -20 -139 0
-138 20 139 0
138 -20 139 0
138 20 -139 0
-139 -23 -140 0
-139 23 140 0
139 -23 140 0
139 23 -140 0
-140 -25 -141 0
-140 25 141 0
140 -25 141 0
140 25 -141 0
-141 -29 -142 0
-141 29 142 0
141 -29 142 0
141 29 -142 0
-142 -30 -143 0
-142 30 143 0
142 -30 143 0
142 30 -143 0
-143 -33 -144 0
-143 33 144 0
143 -33 144 0
143 33 -144 0
-144 -35 -145 0
-144 35 145 0
144 -35 145 0
144 35 -145 0
-145 -39 -146 0
-145 39 146 0
145 -39 146 0
145 39 -146 0
-146 -40 -147 0
-146 40 147 0
146 -40 147 0
146 40 -147 0
136 147 0
-1 -2 -148 0
-1 2 148 0
1 -2 148 0
1 2 -148 0
-148 -3 -149 0
-148 3 149 0
148 -3 149 0
148 3 -149 0
-149 -4 -150 0
-149 4 150 0
149 -4 150 0
149 4 -150 0
-150 -6 -151 0
-150 6 151 0
150 -6 151 0
150 6 -151 0
-151 -9 -152 0
-151 9 152 0
151 -9 152 0
151 9 -152 0
-152 -10 -153 0
-152 10 153 0
152 -10 153 0
152 10 -153 0
-21 -22 -154 0
-21 22 154 0
21 -22 154 0
21 22 -154 0
-154 -23 -155 0
-154 23 155 0
154 -23 155 0
154 23 -155 0
-155 -24 -156 0
-155 24 156 0
155 -24 156 0
155 24 -156 0
-156 -26 -157 0
-156 26 157 0
156 -26 157 0
156 26 -157 0
-157 -29 -158 0
-157 29 158 0
157 -29 158 0
157 29 -158 0
-158 -30 -159 0
-158 30 159 0
158 -30 159 0
158 30 -159 0
153 159 0
-2 -3 -160 0
-2 3 160 0
2 -3 160 0
2 3 -160 0
-160 -5 -161 0
-160 5 161 0
160 -5 161 0
160 5 -161 0
-161 -6 -162 0
-161 6 162 0
161 -6 162 0
161 6 -162 0
-162 -9 -163 0
-162 9 163 0
162 -9 163 0
162 9 -163 0
-163 -10 -164 0
-163 10 164 0
163 -10 164 0
163 10 -164 0
-22 -23 -165 0
-22 23 165 0
22 -23 165 0
22 23 -165 0
-165 -25 -166 0
-165 25 166 0
165 -25 166 0
165 25 -166 0
-166 -26 -167 0
-166 26 167 0
166 -26 167 0
166 26 -167 0
-167 -29 -168 0
-167 29 168 0
167 -29 168 0
167 29 -168 0
-168 -30 -169 0
-168 30 169 0
168 -30 169 0
168 30 -169 0
-169 -32 -170 0
-169 32 170 0
169 -32 170 0
169 32 -170 0
-170 -33 -171 0
-170 33 171 0
170 -33 171 0
170 33 -171 0
-171 -35 -172 0
-171 35 172 0
171 -35 172 0
171 35 -172 0
-172 -36 -173 0
-172 36 173 0
172 -36 173 0
172 36 -173 0
-173 -39 -174 0
-173 39 174 0
173 -39 174 0
173 39 -174 0
-174 -40 -175 0
-174 40 175 0
174 -40 175 0
174 40 -175 0
164 175 0
-1 -4 -176 0
-1 4 176 0
1 -4 176 0
1 4 -176 0
-176 -7 -177 0
-176 7 177 0
176 -7 177 0
176 7 -177 0
-177 -9 -178 0
-177 9 178 0
177 -9 178 0
177 9 -178 0
-178 -10 -179 0
-178 10 179 0
178 -10 179 0
178 10 -179 0
-11 -14 -180 0
-11 14 180 0
11 -14 180 0
11 14 -180 0
-180 -17 -181 0
-180 17 181 0
180 -17 181 0
180 17 -181 0
-181 -19 -182 0
-181 19 182 0
181 -19 182 0
181 19 -182 0
-182 -20 -183 0
-182 20 183 0
182 -20 183 0
182 20 -183 0
-183 -21 -184 0
-183 21 184 0
183 -21 184 0
183 21 -184 0
-184 -24 -185 0
-184 24 185 0
184 -24 185 0
184 24 -185 0
-185 -27 -186 0
-185 27 186 0
185 -27 186 0
185 27 -186 0
-186 -29 -187 0
-186 29 187 0
186 -29 187 0
186 29 -187 0
-187 -30 -188 0
-187 30 188 0
187 -30 188 0
187 30 -188 0
-188 -31 -189 0
-188 31 189 0
188 -31 189 0
188 31 -189 0
-189 -34 -190 0
-189 34 190 0
189 -34 190 0
189 34 -190 0
-190 -37 -191 0
-190 37 191 0
190 -37 191 0
190 37 -191 0
-191 -39 -192 0
-191 39 192 0
191 -39 192 0
191 39 -192 0
-192 -40 -193 0
-192 40 193 0
192 -40 193 0
192 40 -193 0
179 193 0
-1 -3 -194 0
-1 3 194 0
1 -3 194 0
1 3 -194 0
-194 -4 -195 0
-194 4 195 0
194 -4 195 0
194 4 -195 0
-195 -8 -196 0
-195 8 196 0
195 -8 196 0
195 8 -196 0
-196 -9 -197 0
-196 9 197 0
196 -9 197 0
196 9 -197 0
-197 -10 -198 0
-197 10 198 0
197 -10 198 0
197 10 -198 0
-31 -33 -199 0
-31 33 199 0
31 -33 199 0
31 33 -199 0
-199 -34 -200 0
-199 34 200 0
199 -34 200 0
199 34 -200 0
-200 -38 -201 0
-200 38 201 0
200 -38 201 0
200 38 -201 0
-201 -39 -202 0
-201 39 202 0
201 -39 202 0
201 39 -202 0
-202 -40 -203 0
-202 40 203 0
202 -40 203 0
202 40 -203 0
198 203 0
-3 -4 -204 0
-3 4 204 0
3 -4 204 0
3 4 -204 0
-204 -5 -205 0
-204 5 205 0
204 -5 205 0
204 5 -205 0
-205 -8 -206 0
-205 8 206 0
205 -8 206 0
205 8 -206 0
-206 -9 -207 0
-206 9 207 0
206 -9 207 0
206 9 -207 0
-207 -10 -208 0
-207 10 208 0
207 -10 208 0
207 10 -208 0
-13 -14 -209 0
-13 14 209 0
13 -14 209 0
13 14 -209 0
-209 -15 -210 0
-209 15 210 0
209 -15 210 0
209 15 -210 0
-210 -18 -211 0
-210 18 211 0
210 -18 211 0
210 18 -211 0
-211 -19 -212 0
-211 19 212 0
211 -19 212 0
211 19 -212 0
-212 -20 -213 0
-212 20 213 0
212 -20 213 0
212 20 -213 0
208 213 0
-2 -3 -214 0
-2 3 214 0
2 -3 214 0
2 3 -214 0
-214 -5 -215 0
-214 5 215 0
214 -5 215 0
214 5 -215 0
-215 -6 -216 0
-215 6 216 0
215 -6 216 0
215 6 -216 0
-216 -8 -217 0
-216 8 217 0
216 -8 217 0
216 8 -217 0
-217 -9 -218 0
-217 9 218 0
217 -9 218 0
217 9 -218 0
-218 -10 -219 0
-218 10 219 0
218 -10 219 0
218 10 -219 0
-32 -33 -220 0
-32 33 220 0
32 -33 220 0
32 33 -220 0
-220 -35 -221 0
-220 35 221 0
220 -35 221 0
220 35 -221 0
-221 -36 -222 0
-221 36 222 0
221 -36 222 0
221 36 -222 0
-222 -38 -223 0
-222 38 223 0
222 -38 223 0
222 38 -223 0
-223 -39 -224 0
-223 39 224 0
223 -39 224 0
223 39 -224 0
-224 -40 -225 0
-224 40 225 0
224 -40 225 0
224 40 -225 0
219 225 0
-1 -7 -226 0
-1 7 226 0
1 -7 226 0
1 7 -226 0
-226 -8 -227 0
-226 8 227 0
226 -8 227 0
226 8 -227 0
-227 -9 -228 0
-227 9 228 0
227 -9 228 0
227 9 -228 0
-228 -10 -229 0
-228 10 229 0
228 -10 229 0
228 10 -229 0
-21 -27 -230 0
-21 27 230 0
21 -27 230 0
21 27 -230 0
-230 -28 -231 0
-230 28 231 0
230 -28 231 0
230 28 -231 0
-231 -29 -232 0
-231 29 232 0
231 -29 232 0
231 29 -232 0
-232 -30 -233 0
-232 30 233 0
232 -30 233 0
232 30 -233 0
-233 -31 -234 0
-233 31 234 0
233 -31 234 0
233 31 -234 0
-234 -37 -235 0
-234 37 235 0
234 -37 235 0
234 37 -235 0
-235 -38 -236 0
-235 38 236 0
235 -38 236 0
235 38 -236 0
-236 -39 -237 0
-236 39 237 0
236 -39 237 0
236 39 -237 0
-237 -40 -238 0
-237 40 238 0
237 -40 238 0
237 40 -238 0
229 238 0
-1 -4 -239 0
-1 4 239 0
1 -4 239 0
1 4 -239 0
-239 -7 -240 0
-239 7 240 0
239 -7 240 0
239 7 -240 0
-240 -8 -241 0
-240 8 241 0
240 -8 241 0
240 8 -241 0
-241 -9 -242 0
-241 9 242 0
241 -9 242 0
241 9 -242 0
-242 -10 -243 0
-242 10 243 0
242 -10 243 0
242 10 -243 0
-21 -24 -244 0
-21 24 244 0
21 -24 244 0
21 24 -244 0
-244 -27 -245 0
-244 27 245 0
244 -27 245 0
244 27 -245 0
-245 -28 -246 0
-245 28 246 0
245 -28 246 0
245 28 -246 0
-246 -29 -247 0
-246 29 247 0
246 -29 247 0
246 29 -247 0
-247 -30 -248 0
-247 30 248 0
247 -30 248 0
247 30 -248 0
243 248 0
-1 -2 -249 0
-1 2 249 0
1 -2 249 0
1 2 -249 0
-249 -6 -250 0
-249 6 250 0
249 -6 250 0
249 6 -250 0
-250 -7 -251 0
-250 7 251 0
250 -7 251 0
250 7 -251 0
-251 -8 -252 0
-251 8 252 0
251 -8 252 0
251 8 -252 0
-252 -9 -253 0
-252 9 253 0
252 -9 253 0
252 9 -253 0
-253 -10 -254 0
-253 10 254 0
253 -10 254 0
253 10 -254 0
-11 -12 -255 0
-11 12 255 0
11 -12 255 0
11 12 -255 0
-255 -16 -256 0
-255 16 256 0
255 -16 256 0
255 16 -256 0
-256 -17 -257 0
-256 17 257 0
256 -17 257 0
256 17 -257 0
-257 -18 -258 0
-257 18 258 0
257 -18 258 0
257 18 -258 0
-258 -19 -259 0
-258 19 259 0
258 -19 259 0
258 19 -259 0
-259 -20 -260 0
-259 20 260 0
259 -20 260 0
259 20 -260 0
-260 -31 -261 0
-260 31 261 0
260 -31 261 0
260 31 -261 0
-261 -32 -262 0
-261 32 262 0
261 -32 262 0
261 32 -262 0
-262 -36 -263 0
-262 36 263 0
262 -36 263 0
262 36 -263 0
-263 -37 -264 0
-263 37 264 0
263 -37 264 0
263 37 -264 0
-264 -38 -265 0
-264 38 265 0
264 -38 265 0
264 38 -265 0
-265 -39 -266 0
-265 39 266 0
265 -39 266 0
265 39 -266 0
-266 -40 -267 0
-266 40 267 0
266 -40 267 0
266 40 -267 0
254 267 0
-2 -5 -268 0
-2 5 268 0
2 -5 268 0
2 5 -268 0
-268 -6 -269 0
-268 6 269 0
268 -6 269 0
268 6 -269 0
-269 -7 -270 0
-269 7 270 0
269 -7 270 0
269 7 -270 0
-270 -8 -271 0
-270 8 271 0
270 -8 271 0
270 8 -271 0
-271 -9 -272 0
-271 9 272 0
271 -9 272 0
271 9 -272 0
-272 -10 -273 0
-272 10 273 0
272 -10 273 0
272 10 -273 0
-12 -15 -274 0
-12 15 274 0
12 -15 274 0
12 15 -274 0
-274 -16 -275 0
-274 16 275 0
274 -16 275 0
274 16 -275 0
-275 -17 -276 0
-275 17 276 0
275 -17 276 0
275 17 -276 0
-276 -18 -277 0
-276 18 277 0
276 -18 277 0
276 18 -277 0
-277 -19 -278 0
-277 19 278 0
277 -19 278 0
277 19 -278 0
-278 -20 -279 0
-278 20 279 0
278 -20 279 0
278 20 -279 0
273 279 0
-2 -4 -280 0
-2 4 280 0
2 -4 280 0
2 4 -280 0
-280 -5 -281 0
-280 5 281 0
280 -5 281 0
280 5 -281 0
-281 -6 -282 0
-281 6 282 0
281 -6 282 0
281 6 -282 0
-282 -7 -283 0
-282 7 283 0
282 -7 283 0
282 7 -283 0
-283 -8 -284 0
-283 8 284 0
283 -8 284 0
283 8 -284 0
-284 -9 -285 0
-284 9 285 0
284 -9 285 0
284 9 -285 0
-285 -10 -286 0
-285 10 286 0
285 -10 286 0
285 10 -286 0
-12 -14 -287 0
-12 14 287 0
12 -14 287 0
12 14 -287 0
-287 -15 -288 0
-287 15 288 0
287 -15 288 0
287 15 -288 0
-288 -16 -289 0
-288 16 289 0
288 -16 289 0
288 16 -289 0
-289 -17 -290 0
-289 17 290 0
289 -17 290 0
289 17 -290 0
-290 -18 -291 0
-290 18 291 0
290 -18 291 0
290 18 -291 0
-291 -19 -292 0
-291 19 292 0
291 -19 292 0
291 19 -292 0
-292 -20 -293 0
-292 20 293 0
292 -20 293 0
292 20 -293 0
-293 -32 -294 0
-293 32 294 0
293 -32 294 0
293 32 -294 0
-294 -34 -295 0
-294 34 295 0
294 -34 295 0
294 34 -295 0
-295 -35 -296 0
-295 35 296 0
295 -35 296 0
295 35 -296 0
-296 -36 -297 0
-296 36 297 0
296 -36 297 0
296 36 -297 0
-297 -37 -298 0
-297 37 298 0
297 -37 298 0
297 37 -298 0
-298 -38 -299 0
-298 38 299 0
298 -38 299 0
298 38 -299 0
-299 -39 -300 0
-299 39 300 0
299 -39 300 0
299 39 -300 0
-300 -40 -301 0
-300 40 301 0
300 -40 301 0
300 40 -301 0
286 301 0
-1 -2 -302 0
-1 2 302 0
1 -2 302 0
1 2 -302 0
-302 -3 -303 0
-302 3 303 0
302 -3 303 0
302 3 -303 0
-303 -11 -304 0
-303 11 304 0
303 -11 304 0
303 11 -304 0
-304 -12 -305 0
-304 12 305 0
304 -12 305 0
304 12 -305 0
-305 -13 -306 0
-305 13 306 0
305 -13 306 0
305 13 -306 0
-1 -2 -307 0
-1 2 307 0
1 -2 307 0
1 2 -307 0
-307 -3 -308 0
-307 3 308 0
307 -3 308 0
307 3 -308 0
-308 -31 -309 0
-308 31 309 0
308 -31 309 0
308 31 -309 0
-309 -32 -310 0
-309 32 310 0
309 -32 310 0
309 32 -310 0
-310 -33 -311 0
-310 33 311 0
310 -33 311 0
310 33 -311 0
306 311 0
-11 -14 -312 0
-11 14 312 0
11 -14 312 0
11 14 -312 0
-21 -24 -313 0
-21 24 313 0
21 -24 313 0
21 24 -313 0
-313 -31 -314 0
-313 31 314 0
313 -31 314 0
313 31 -314 0
-314 -34 -315 0
-314 34 315 0
314 -34 315 0
314 34 -315 0
312 315 0
-4 -5 -316 0
-4 5 316 0
4 -5 316 0
4 5 -316 0
-316 -14 -317 0
-316 14 317 0
316 -14 317 0
316 14 -317 0
-317 -15 -318 0
-317 15 318 0
317 -15 318 0
317 15 -318 0
-4 -5 -319 0
-4 5 319 0
4 -5 319 0
4 5 -319 0
-319 -24 -320 0
-319 24 320 0
319 -24 320 0
319 24 -320 0
-320 -25 -321 0
-320 25 321 0
320 -25 321 0
320 25 -321 0
318 321 0
-12 -14 -322 0
-12 14 322 0
12 -14 322 0
12 14 -322 0
-322 -15 -323 0
-322 15 323 0
322 -15 323 0
322 15 -323 0
-323 -16 -324 0
-323 16 324 0
323 -16 324 0
323 16 -324 0
-324 -17 -325 0
-324 17 325 0
324 -17 325 0
324 17 -325 0
-2 -4 -326 0
-2 4 326 0
2 -4 326 0
2 4 -326 0
-326 -5 -327 0
-326 5 327 0
326 -5 327 0
326 5 -327 0
-327 -6 -328 0
-327 6 328 0
327 -6 328 0
327 6 -328 0
-328 -7 -329 0
-328 7 329 0
328 -7 329 0
328 7 -329 0
-329 -32 -330 0
-329 32 330 0
329 -32 330 0
329 32 -330 0
-330 -34 -331 0
-330 34 331 0
330 -34 331 0
330 34 -331 0
-331 -35 -332 0
-331 35 332 0
331 -35 332 0
331 35 -332 0
-332 -36 -333 0
-332 36 333 0
332 -36 333 0
332 36 -333 0
-333 -37 -334 0
-333 37 334 0
333 -37 334 0
333 37 -334 0
325 334 0
-2 -5 -335 0
-2 5 335 0
2 -5 335 0
2 5 -335 0
-335 -8 -336 0
-335 8 336 0
335 -8 336 0
335 8 -336 0
-336 -12 -337 0
-336 12 337 0
336 -12 337 0
336 12 -337 0
-337 -15 -338 0
-337 15 338 0
337 -15 338 0
337 15 -338 0
-338 -18 -339 0
-338 18 339 0
338 -18 339 0
338 18 -339 0
-2 -5 -340 0
-2 5 340 0
2 -5 340 0
2 5 -340 0
-340 -8 -341 0
-340 8 341 0
340 -8 341 0
340 8 -341 0
-341 -22 -342 0
-341 22 342 0
341 -22 342 0
341 22 -342 0
-342 -25 -343 0
-342 25 343 0
342 -25 343 0
342 25 -343 0
-343 -28 -344 0
-343 28 344 0
343 -28 344 0
343 28 -344 0
-344 -32 -345 0
-344 32 345 0
344 -32 345 0
344 32 -345 0
-345 -35 -346 0
-345 35 346 0
345 -35 346 0
345 35 -346 0
-346 -38 -347 0
-346 38 347 0
346 -38 347 0
346 38 -347 0
339 347 0
-3 -6 -348 0
-3 6 348 0
3 -6 348 0
3 6 -348 0
-348 -7 -349 0
-348 7 349 0
348 -7 349 0
348 7 -349 0
-349 -8 -350 0
-349 8 350 0
349 -8 350 0
349 8 -350 0
-350 -13 -351 0
-350 13 351 0
350 -13 351 0
350 13 -351 0
-351 -16 -352 0
-351 16 352 0
351 -16 352 0
351 16 -352 0
-352 -17 -353 0
-352 17 353 0
352 -17 353 0
352 17 -353 0
-353 -18 -354 0
-353 18 354 0
353 -18 354 0
353 18 -354 0
-23 -26 -355 0
-23 26 355 0
23 -26 355 0
23 26 -355 0
-355 -27 -356 0
-355 27 356 0
355 -27 356 0
355 27 -356 0
-356 -28 -357 0
-356 28 357 0
356 -28 357 0
356 28 -357 0
354 357 0
-13 -14 -358 0
-13 14 358 0
13 -14 358 0
13 14 -358 0
-358 -16 -359 0
-358 16 359 0
358 -16 359 0
358 16 -359 0
-359 -17 -360 0
-359 17 360 0
359 -17 360 0
359 17 -360 0
-360 -18 -361 0
-360 18 361 0
360 -18 361 0
360 18 -361 0
-3 -4 -362 0
-3 4 362 0
3 -4 362 0
3 4 -362 0
-362 -6 -363 0
-362 6 363 0
362 -6 363 0
362 6 -363 0
-363 -7 -364 0
-363 7 364 0
363 -7 364 0
363 7 -364 0
-364 -8 -365 0
-364 8 365 0
364 -8 365 0
364 8 -365 0
-365 -23 -366 0
-365 23 366 0
365 -23 366 0
365 23 -366 0
-366 -24 -367 0
-366 24 367 0
366 -24 367 0
366 24 -367 0
-367 -26 -368 0
-367 26 368 0
367 -26 368 0
367 26 -368 0
-368 -27 -369 0
-368 27 369 0
368 -27 369 0
368 27 -369 0
-369 -28 -370 0
-369 28 370 0
369 -28 370 0
369 28 -370 0
361 370 0
-14 -15 -371 0
-14 15 371 0
14 -15 371 0
14 15 -371 0
-371 -16 -372 0
-371 16 372 0
371 -16 372 0
371 16 -372 0
-372 -17 -373 0
-372 17 373 0
372 -17 373 0
372 17 -373 0
-373 -18 -374 0
-373 18 374 0
373 -18 374 0
373 18 -374 0
-24 -25 -375 0
-24 25 375 0
24 -25 375 0
24 25 -375 0
-375 -26 -376 0
-375 26 376 0
375 -26 376 0
375 26 -376 0
-376 -27 -377 0
-376 27 377 0
376 -27 377 0
376 27 -377 0
-377 -28 -378 0
-377 28 378 0
377 -28 378 0
377 28 -378 0
374 378 0
-1 -2 -379 0
-1 2 379 0
1 -2 379 0
1 2 -379 0
-379 -9 -380 0
-379 9 380 0
379 -9 380 0
379 9 -380 0
-380 -11 -381 0
-380 11 381 0
380 -11 381 0
380 11 -381 0
-381 -12 -382 0
-381 12 382 0
381 -12 382 0
381 12 -382 0
-382 -19 -383 0
-382 19 383 0
382 -19 383 0
382 19 -383 0
-1 -2 -384 0
-1 2 384 0
1 -2 384 0
1 2 -384 0
-384 -9 -385 0
-384 9 385 0
384 -9 385 0
384 9 -385 0
-385 -31 -386 0
-385 31 386 0
385 -31 386 0
385 31 -386 0
-386 -32 -387 0
-386 32 387 0
386 -32 387 0
386 32 -387 0
-387 -39 -388 0
-387 39 388 0
387 -39 388 0
387 39 -388 0
383 388 0
-3 -9 -389 0
-3 9 389 0
3 -9 389 0
3 9 -389 0
-389 -13 -390 0
-389 13 390 0
389 -13 390 0
389 13 -390 0
-390 -19 -391 0
-390 19 391 0
390 -19 391 0
390 19 -391 0
-3 -9 -392 0
-3 9 392 0
3 -9 392 0
3 9 -392 0
-392 -33 -393 0
-392 33 393 0
392 -33 393 0
392 33 -393 0
-393 -39 -394 0
-393 39 394 0
393 -39 394 0
393 39 -394 0
391 394 0
-12 -13 -395 0
-12 13 395 0
12 -13 395 0
12 13 -395 0
-395 -16 -396 0
-395 16 396 0
395 -16 396 0
395 16 -396 0
-396 -19 -397 0
-396 19 397 0
396 -19 397 0
396 19 -397 0
-22 -23 -398 0
-22 23 398 0
22 -23 398 0
22 23 -398 0
-398 -26 -399 0
-398 26 399 0
398 -26 399 0
398 26 -399 0
-399 -29 -400 0
-399 29 400 0
399 -29 400 0
399 29 -400 0
397 400 0
-12 -15 -401 0
-12 15 401 0
12 -15 401 0
12 15 -401 0
-401 -16 -402 0
-401 16 402 0
401 -16 402 0
401 16 -402 0
-402 -19 -403 0
-402 19 403 0
402 -19 403 0
402 19 -403 0
-2 -5 -404 0
-2 5 404 0
2 -5 404 0
2 5 -404 0
-404 -6 -405 0
-404 6 405 0
404 -6 405 0
404 6 -405 0
-405 -9 -406 0
-405 9 406 0
405 -9 406 0
405 9 -406 0
-406 -22 -407 0
-406 22 407 0
406 -22 407 0
406 22 -407 0
-407 -25 -408 0
-407 25 408 0
407 -25 408 0
407 25 -408 0
-408 -26 -409 0
-408 26 409 0
408 -26 409 0
408 26 -409 0
-409 -29 -410 0
-409 29 410 0
409 -29 410 0
409 29 -410 0
-410 -32 -411 0
-410 32 411 0
410 -32 411 0
410 32 -411 0
-411 -35 -412 0
-411 35 412 0
411 -35 412 0
411 35 -412 0
-412 -36 -413 0
-412 36 413 0
412 -36 413 0
412 36 -413 0
-413 -39 -414 0
-413 39 414 0
413 -39 414 0
413 39 -414 0
403 414 0
-2 -4 -415 0
-2 4 415 0
2 -4 415 0
2 4 -415 0
-415 -6 -416 0
-415 6 416 0
415 -6 416 0
415 6 -416 0
-416 -7 -417 0
-416 7 417 0
416 -7 417 0
416 7 -417 0
-417 -9 -418 0
-417 9 418 0
417 -9 418 0
417 9 -418 0
-418 -12 -419 0
-418 12 419 0
418 -12 419 0
418 12 -419 0
-419 -14 -420 0
-419 14 420 0
419 -14 420 0
419 14 -420 0
-420 -16 -421 0
-420 16 421 0
420 -16 421 0
420 16 -421 0
-421 -17 -422 0
-421 17 422 0
421 -17 422 0
421 17 -422 0
-422 -19 -423 0
-422 19 423 0
422 -19 423 0
422 19 -423 0
-2 -4 -424 0
-2 4 424 0
2 -4 424 0
2 4 -424 0
-424 -6 -425 0
-424 6 425 0
424 -6 425 0
424 6 -425 0
-425 -7 -426 0
-425 7 426 0
425 -7 426 0
425 7 -426 0
-426 -9 -427 0
-426 9 427 0
426 -9 427 0
426 9 -427 0
-427 -22 -428 0
-427 22 428 0
427 -22 428 0
427 22 -428 0
-428 -24 -429 0
-428 24 429 0
428 -24 429 0
428 24 -429 0
-429 -26 -430 0
-429 26 430 0
429 -26 430 0
429 26 -430 0
-430 -27 -431 0
-430 27 431 0
430 -27 431 0
430 27 -431 0
-431 -29 -432 0
-431 29 432 0
431 -29 432 0
431 29 -432 0
-432 -32 -433 0
-432 32 433 0
432 -32 433 0
432 32 -433 0
-433 -34 -434 0
-433 34 434 0
433 -34 434 0
433 34 -434 0
-434 -36 -435 0
-434 36 435 0
434 -36 435 0
434 36 -435 0
-435 -37 -436 0
-435 37 436 0
435 -37 436 0
435 37 -436 0
-436 -39 -437 0
-436 39 437 0
436 -39 437 0
436 39 -437 0
423 437 0
-1 -3 -438 0
-1 3 438 0
1 -3 438 0
1 3 -438 0
-438 -4 -439 0
-438 4 439 0
438 -4 439 0
438 4 -439 0
-439 -6 -440 0
-439 6 440 0
439 -6 440 0
439 6 -440 0
-440 -7 -441 0
-440 7 441 0
440 -7 441 0
440 7 -441 0
-441 -9 -442 0
-441 9 442 0
441 -9 442 0
441 9 -442 0
-442 -11 -443 0
-442 11 443 0
442 -11 443 0
442 11 -443 0
-443 -13 -444 0
-443 13 444 0
443 -13 444 0
443 13 -444 0
-444 -14 -445 0
-444 14 445 0
444 -14 445 0
444 14 -445 0
-445 -16 -446 0
-445 16 446 0
445 -16 446 0
445 16 -446 0
-446 -17 -447 0
-446 17 447 0
446 -17 447 0
446 17 -447 0
-447 -19 -448 0
-447 19 448 0
447 -19 448 0
447 19 -448 0
-21 -23 -449 0
-21 23 449 0
21 -23 449 0
21 23 -449 0
-449 -24 -450 0
-449 24 450 0
449 -24 450 0
449 24 -450 0
-450 -26 -451 0
-450 26 451 0
450 -26 451 0
450 26 -451 0
-451 -27 -452 0
-451 27 452 0
451 -27 452 0
451 27 -452 0
-452 -29 -453 0
-452 29 453 0
452 -29 453 0
452 29 -453 0
-453 -31 -454 0
-453 31 454 0
453 -31 454 0
453 31 -454 0
-454 -33 -455 0
-454 33 455 0
454 -33 455 0
454 33 -455 0
-455 -34 -456 0
-455 34 456 0
455 -34 456 0
455 34 -456 0
-456 -36 -457 0
-456 36 457 0
456 -36 457 0
456 36 -457 0
-457 -37 -458 0
-457 37 458 0
457 -37 458 0
457 37 -458 0
-458 -39 -459 0
-458 39 459 0
458 -39 459 0
458 39 -459 0
448 459 0
-2 -5 -460 0
-2 5 460 0
2 -5 460 0
2 5 -460 0
-460 -6 -461 0
-460 6 461 0
460 -6 461 0
460 6 -461 0
-461 -7 -462 0
-461 7 462 0
461 -7 462 0
461 7 -462 0
-462 -9 -463 0
-462 9 463 0
462 -9 463 0
462 9 -463 0
-463 -12 -464 0
-463 12 464 0
463 -12 464 0
463 12 -464 0
-464 -15 -465 0
-464 15 465 0
464 -15 465 0
464 15 -465 0
-465 -16 -466 0
-465 16 466 0
465 -16 466 0
465 16 -466 0
-466 -17 -467 0
-466 17 467 0
466 -17 467 0
466 17 -467 0
-467 -19 -468 0
-467 19 468 0
467 -19 468 0
467 19 -468 0
-22 -25 -469 0
-22 25 469 0
22 -25 469 0
22 25 -469 0
-469 -26 -470 0
-469 26 470 0
469 -26 470 0
469 26 -470 0
-470 -27 -471 0
-470 27 471 0
470 -27 471 0
470 27 -471 0
-471 -29 -472 0
-471 29 472 0
471 -29 472 0
471 29 -472 0
468 472 0
-1 -4 -473 0
-1 4 473 0
1 -4 473 0
1 4 -473 0
-473 -8 -474 0
-473 8 474 0
473 -8 474 0
473 8 -474 0
-474 -9 -475 0
-474 9 475 0
474 -9 475 0
474 9 -475 0
-475 -11 -476 0
-475 11 476 0
475 -11 476 0
475 11 -476 0
-476 -14 -477 0
-476 14 477 0
476 -14 477 0
476 14 -477 0
-477 -18 -478 0
-477 18 478 0
477 -18 478 0
477 18 -478 0
-478 -19 -479 0
-478 19 479 0
478 -19 479 0
478 19 -479 0
-31 -34 -480 0
-31 34 480 0
31 -34 480 0
31 34 -480 0
-480 -38 -481 0
-480 38 481 0
480 -38 481 0
480 38 -481 0
-481 -39 -482 0
-481 39 482 0
481 -39 482 0
481 39 -482 0
479 482 0
-2 -3 -483 0
-2 3 483 0
2 -3 483 0
2 3 -483 0
-483 -5 -484 0
-483 5 484 0
483 -5 484 0
483 5 -484 0
-484 -8 -485 0
-484 8 485 0
484 -8 485 0
484 8 -485 0
-485 -9 -486 0
-485 9 486 0
485 -9 486 0
485 9 -486 0
-486 -12 -487 0
-486 12 487 0
486 -12 487 0
486 12 -487 0
-487 -13 -488 0
-487 13 488 0
487 -13 488 0
487 13 -488 0
-488 -15 -489 0
-488 15 489 0
488 -15 489 0
488 15 -489 0
-489 -18 -490 0
-489 18 490 0
489 -18 490 0
489 18 -490 0
-490 -19 -491 0
-490 19 491 0
490 -19 491 0
490 19 -491 0
-22 -23 -492 0
-22 23 492 0
22 -23 492 0
22 23 -492 0
-492 -25 -493 0
-492 25 493 0
492 -25 493 0
492 25 -493 0
-493 -28 -494 0
-493 28 494 0
493 -28 494 0
493 28 -494 0
-494 -29 -495 0
-494 29 495 0
494 -29 495 0
494 29 -495 0
491 495 0
-13 -16 -496 0
-13 16 496 0
13 -16 496 0
13 16 -496 0
-496 -18 -497 0
-496 18 497 0
496 -18 497 0
496 18 -497 0
-497 -19 -498 0
-497 19 498 0
497 -19 498 0
497 19 -498 0
-33 -36 -499 0
-33 36 499 0
33 -36 499 0
33 36 -499 0
-499 -38 -500 0
-499 38 500 0
499 -38 500 0
499 38 -500 0
-500 -39 -501 0
-500 39 501 0
500 -39 501 0
500 39 -501 0
498 501 0
-12 -13 -502 0
-12 13 502 0
12 -13 502 0
12 13 -502 0
-502 -14 -503 0
-502 14 503 0
502 -14 503 0
502 14 -503 0
-503 -15 -504 0
-503 15 504 0
503 -15 504 0
503 15 -504 0
-504 -17 -505 0
-504 17 505 0
504 -17 505 0
504 17 -505 0
-505 -18 -506 0
-505 18 506 0
505 -18 506 0
505 18 -506 0
-506 -19 -507 0
-506 19 507 0
506 -19 507 0
506 19 -507 0
-22 -23 -508 0
-22 23 508 0
22 -23 508 0
22 23 -508 0
-508 -24 -509 0
-508 24 509 0
508 -24 509 0
508 24 -509 0
-509 -25 -510 0
-509 25 510 0
509 -25 510 0
509 25 -510 0
-510 -27 -511 0
-510 27 511 0
510 -27 511 0
510 27 -511 0
-511 -28 -512 0
-511 28 512 0
511 -28 512 0
511 28 -512 0
-512 -29 -513 0
-512 29 513 0
512 -29 513 0
512 29 -513 0
507 513 0
-4 -5 -514 0
-4 5 514 0
4 -5 514 0
4 5 -514 0
-514 -6 -515 0
-514 6 515 0
514 -6 515 0
514 6 -515 0
-515 -7 -516 0
-515 7 516 0
515 -7 516 0
515 7 -516 0
-516 -8 -517 0
-516 8 517 0
516 -8 517 0
516 8 -517 0
-517 -9 -518 0
-517 9 518 0
517 -9 518 0
517 9 -518 0
-518 -14 -519 0
-518 14 519 0
518 -14 519 0
518 14 -519 0
-519 -15 -520 0
-519 15 520 0
519 -15 520 0
519 15 -520 0
-520 -16 -521 0
-520 16 521 0
520 -16 521 0
520 16 -521 0
-521 -17 -522 0
-521 17 522 0
521 -17 522 0
521 17 -522 0
-522 -18 -523 0
-522 18 523 0
522 -18 523 0
522 18 -523 0
-523 -19 -524 0
-523 19 524 0
523 -19 524 0
523 19 -524 0
-4 -5 -525 0
-4 5 525 0
4 -5 525 0
4 5 -525 0
-525 -6 -526 0
-525 6 526 0
525 -6 526 0
525 6 -526 0
-526 -7 -527 0
-526 7 527 0
526 -7 527 0
526 7 -527 0
-527 -8 -528 0
-527 8 528 0
527 -8 528 0
527 8 -528 0
-528 -9 -529 0
-528 9 529 0
528 -9 529 0
528 9 -529 0
-529 -24 -530 0
-529 24 530 0
529 -24 530 0
529 24 -530 0
-530 -25 -531 0
-530 25 531 0
530 -25 531 0
530 25 -531 0
-531 -26 -532 0
-531 26 532 0
531 -26 532 0
531 26 -532 0
-532 -27 -533 0
-532 27 533 0
532 -27 533 0
532 27 -533 0
-533 -28 -534 0
-533 28 534 0
533 -28 534 0
533 28 -534 0
-534 -29 -535 0
-534 29 535 0
534 -29 535 0
534 29 -535 0
-535 -34 -536 0
-535 34 536 0
535 -34 536 0
535 34 -536 0
-536 -35 -537 0
-536 35 537 0
536 -35 537 0
536 35 -537 0
-537 -36 -538 0
-537 36 538 0
537 -36 538 0
537 36 -538 0
-538 -37 -539 0
-538 37 539 0
538 -37 539 0
538 37 -539 0
-539 -38 -540 0
-539 38 540 0
539 -38 540 0
539 38 -540 0
-540 -39 -541 0
-540 39 541 0
540 -39 541 0
540 39 -541 0
524 541 0
-2 -4 -542 0
-2 4 542 0
2 -4 542 0
2 4 -542 0
-542 -10 -543 0
-542 10 543 0
542 -10 543 0
542 10 -543 0
-543 -12 -544 0
-543 12 544 0
543 -12 544 0
543 12 -544 0
-544 -14 -545 0
-544 14 545 0
544 -14 545 0
544 14 -545 0
-545 -20 -546 0
-545 20 546 0
545 -20 546 0
545 20 -546 0
-2 -4 -547 0
-2 4 547 0
2 -4 547 0
2 4 -547 0
-547 -10 -548 0
-547 10 548 0
547 -10 548 0
547 10 -548 0
-548 -32 -549 0
-548 32 549 0
548 -32 549 0
548 32 -549 0
-549 -34 -550 0
-549 34 550 0
549 -34 550 0
549 34 -550 0
-550 -40 -551 0
-550 40 551 0
550 -40 551 0
550 40 -551 0
546 551 0
-1 -3 -552 0
-1 3 552 0
1 -3 552 0
1 3 -552 0
-552 -4 -553 0
-552 4 553 0
552 -4 553 0
552 4 -553 0
-553 -10 -554 0
-553 10 554 0
553 -10 554 0
553 10 -554 0
-554 -11 -555 0
-554 11 555 0
554 -11 555 0
554 11 -555 0
-555 -13 -556 0
-555 13 556 0
555 -13 556 0
555 13 -556 0
-556 -14 -557 0
-556 14 557 0
556 -14 557 0
556 14 -557 0
-557 -20 -558 0
-557 20 558 0
557 -20 558 0
557 20 -558 0
-1 -3 -559 0
-1 3 559 0
1 -3 559 0
1 3 -559 0
-559 -4 -560 0
-559 4 560 0
559 -4 560 0
559 4 -560 0
-560 -10 -561 0
-560 10 561 0
560 -10 561 0
560 10 -561 0
-561 -31 -562 0
-561 31 562 0
561 -31 562 0
561 31 -562 0
-562 -33 -563 0
-562 33 563 0
562 -33 563 0
562 33 -563 0
-563 -34 -564 0
-563 34 564 0
563 -34 564 0
563 34 -564 0
-564 -40 -565 0
-564 40 565 0
564 -40 565 0
564 40 -565 0
558 565 0
-2 -5 -566 0
-2 5 566 0
2 -5 566 0
2 5 -566 0
-566 -10 -567 0
-566 10 567 0
566 -10 567 0
566 10 -567 0
-567 -12 -568 0
-567 12 568 0
567 -12 568 0
567 12 -568 0
-568 -15 -569 0
-568 15 569 0
568 -15 569 0
568 15 -569 0
-569 -20 -570 0
-569 20 570 0
569 -20 570 0
569 20 -570 0
-32 -35 -571 0
-32 35 571 0
32 -35 571 0
32 35 -571 0
-571 -40 -572 0
-571 40 572 0
571 -40 572 0
571 40 -572 0
570 572 0
-1 -3 -573 0
-1 3 573 0
1 -3 573 0
1 3 -573 0
-573 -5 -574 0
-573 5 574 0
573 -5 574 0
573 5 -574 0
-574 -10 -575 0
-574 10 575 0
574 -10 575 0
574 10 -575 0
-575 -11 -576 0
-575 11 576 0
575 -11 576 0
575 11 -576 0
-576 -13 -577 0
-576 13 577 0
576 -13 577 0
576 13 -577 0
-577 -15 -578 0
-577 15 578 0
577 -15 578 0
577 15 -578 0
-578 -20 -579 0
-578 20 579 0
578 -20 579 0
578 20 -579 0
-21 -23 -580 0
-21 23 580 0
21 -23 580 0
21 23 -580 0
-580 -25 -581 0
-580 25 581 0
580 -25 581 0
580 25 -581 0
-581 -30 -582 0
-581 30 582 0
581 -30 582 0
581 30 -582 0
579 582 0
-11 -15 -583 0
-11 15 583 0
11 -15 583 0
11 15 -583 0
-583 -16 -584 0
-583 16 584 0
583 -16 584 0
583 16 -584 0
-584 -20 -585 0
-584 20 585 0
584 -20 585 0
584 20 -585 0
-1 -5 -586 0
-1 5 586 0
1 -5 586 0
1 5 -586 0
-586 -6 -587 0
-586 6 587 0
586 -6 587 0
586 6 -587 0
-587 -10 -588 0
-587 10 588 0
587 -10 588 0
587 10 -588 0
-588 -31 -589 0
-588 31 589 0
588 -31 589 0
588 31 -589 0
-589 -35 -590 0
-589 35 590 0
589 -35 590 0
589 35 -590 0
-590 -36 -591 0
-590 36 591 0
590 -36 591 0
590 36 -591 0
-591 -40 -592 0
-591 40 592 0
591 -40 592 0
591 40 -592 0
585 592 0
-14 -15 -593 0
-14 15 593 0
14 -15 593 0
14 15 -593 0
-593 -16 -594 0
-593 16 594 0
593 -16 594 0
593 16 -594 0
-594 -20 -595 0
-594 20 595 0
594 -20 595 0
594 20 -595 0
-4 -5 -596 0
-4 5 596 0
4 -5 596 0
4 5 -596 0
-596 -6 -597 0
-596 6 597 0
596 -6 597 0
596 6 -597 0
-597 -10 -598 0
-597 10 598 0
597 -10 598 0
597 10 -598 0
-598 -24 -599 0
-598 24 599 0
598 -24 599 0
598 24 -599 0
-599 -25 -600 0
-599 25 600 0
599 -25 600 0
599 25 -600 0
-600 -26 -601 0
-600 26 601 0
600 -26 601 0
600 26 -601 0
-601 -30 -602 0
-601 30 602 0
601 -30 602 0
601 30 -602 0
595 602 0
-11 -12 -603 0
-11 12 603 0
11 -12 603 0
11 12 -603 0
-603 -14 -604 0
-603 14 604 0
603 -14 604 0
603 14 -604 0
-604 -17 -605 0
-604 17 605 0
604 -17 605 0
604 17 -605 0
-605 -20 -606 0
-605 20 606 0
605 -20 606 0
605 20 -606 0
-1 -2 -607 0
-1 2 607 0
1 -2 607 0
1 2 -607 0
-607 -4 -608 0
-607 4 608 0
607 -4 608 0
607 4 -608 0
-608 -7 -609 0
-608 7 609 0
608 -7 609 0
608 7 -609 0
-609 -10 -610 0
-609 10 610 0
609 -10 610 0
609 10 -610 0
-610 -31 -611 0
-610 31 611 0
610 -31 611 0
610 31 -611 0
-611 -32 -612 0
-611 32 612 0
611 -32 612 0
611 32 -612 0
-612 -34 -613 0
-612 34 613 0
612 -34 613 0
612 34 -613 0
-613 -37 -614 0
-613 37 614 0
613 -37 614 0
613 37 -614 0
-614 -40 -615 0
-614 40 615 0
614 -40 615 0
614 40 -615 0
606 615 0
-12 -13 -616 0
-12 13 616 0
12 -13 616 0
12 13 -616 0
-616 -15 -617 0
-616 15 617 0
616 -15 617 0
616 15 -617 0
-617 -17 -618 0
-617 17 618 0
617 -17 618 0
617 17 -618 0
-618 -20 -619 0
-618 20 619 0
618 -20 619 0
618 20 -619 0
-2 -3 -620 0
-2 3 620 0
2 -3 620 0
2 3 -620 0
-620 -5 -621 0
-620 5 621 0
620 -5 621 0
620 5 -621 0
-621 -7 -622 0
-621 7 622 0
621 -7 622 0
621 7 -622 0
-622 -10 -623 0
-622 10 623 0
622 -10 623 0
622 10 -623 0
-623 -22 -624 0
-623 22 624 0
623 -22 624 0
623 22 -624 0
-624 -23 -625 0
-624 23 625 0
624 -23 625 0
624 23 -625 0
-625 -25 -626 0
-625 25 626 0
625 -25 626 0
625 25 -626 0
-626 -27 -627 0
-626 27 627 0
626 -27 627 0
626 27 -627 0
-627 -30 -628 0
-627 30 628 0
627 -30 628 0
627 30 -628 0
-628 -32 -629 0
-628 32 629 0
628 -32 629 0
628 32 -629 0
-629 -33 -630 0
-629 33 630 0
629 -33 630 0
629 33 -630 0
-630 -35 -631 0
-630 35 631 0
630 -35 631 0
630 35 -631 0
-631 -37 -632 0
-631 37 632 0
631 -37 632 0
631 37 -632 0
-632 -40 -633 0
-632 40 633 0
632 -40 633 0
632 40 -633 0
619 633 0
-11 -12 -634 0
-11 12 634 0
11 -12 634 0
11 12 -634 0
-634 -13 -635 0
-634 13 635 0
634 -13 635 0
634 13 -635 0
-635 -14 -636 0
-635 14 636 0
635 -14 636 0
635 14 -636 0
-636 -15 -637 0
-636 15 637 0
636 -15 637 0
636 15 -637 0
-637 -17 -638 0
-637 17 638 0
637 -17 638 0
637 17 -638 0
-638 -20 -639 0
-638 20 639 0
638 -20 639 0
638 20 -639 0
-21 -22 -640 0
-21 22 640 0
21 -22 640 0
21 22 -640 0
-640 -23 -641 0
-640 23 641 0
640 -23 641 0
640 23 -641 0
-641 -24 -642 0
-641 24 642 0
641 -24 642 0
641 24 -642 0
-642 -25 -643 0
-642 25 643 0
642 -25 643 0
642 25 -643 0
-643 -27 -644 0
-643 27 644 0
643 -27 644 0
643 27 -644 0
-644 -30 -645 0
-644 30 645 0
644 -30 645 0
644 30 -645 0
639 645 0
-1 -2 -646 0
-1 2 646 0
1 -2 646 0
1 2 -646 0
-646 -4 -647 0
-646 4 647 0
646 -4 647 0
646 4 -647 0
-647 -5 -648 0
-647 5 648 0
647 -5 648 0
647 5 -648 0
-648 -6 -649 0
-648 6 649 0
648 -6 649 0
648 6 -649 0
-649 -7 -650 0
-649 7 650 0
649 -7 650 0
649 7 -650 0
-650 -10 -651 0
-650 10 651 0
650 -10 651 0
650 10 -651 0
-651 -11 -652 0
-651 11 652 0
651 -11 652 0
651 11 -652 0
-652 -12 -653 0
-652 12 653 0
652 -12 653 0
652 12 -653 0
-653 -14 -654 0
-653 14 654 0
653 -14 654 0
653 14 -654 0
-654 -15 -655 0
-654 15 655 0
654 -15 655 0
654 15 -655 0
-655 -16 -656 0
-655 16 656 0
655 -16 656 0
655 16 -656 0
-656 -17 -657 0
-656 17 657 0
656 -17 657 0
656 17 -657 0
-657 -20 -658 0
-657 20 658 0
657 -20 658 0
657 20 -658 0
-21 -22 -659 0
-21 22 659 0
21 -22 659 0
21 22 -659 0
-659 -24 -660 0
-659 24 660 0
659 -24 660 0
659 24 -660 0
-660 -25 -661 0
-660 25 661 0
660 -25 661 0
660 25 -661 0
-661 -26 -662 0
-661 26 662 0
661 -26 662 0
661 26 -662 0
-662 -27 -663 0
-662 27 663 0
662 -27 663 0
662 27 -663 0
-663 -30 -664 0
-663 30 664 0
663 -30 664 0
663 30 -664 0
-664 -31 -665 0
-664 31 665 0
664 -31 665 0
664 31 -665 0
-665 -32 -666 0
-665 32 666 0
665 -32 666 0
665 32 -666 0
-666 -34 -667 0
-666 34 667 0
666 -34 667 0
666 34 -667 0
-667 -35 -668 0
-667 35 668 0
667 -35 668 0
667 35 -668 0
-668 -36 -669 0
-668 36 669 0
668 -36 669 0
668 36 -669 0
-669 -37 -670 0
-669 37 670 0
669 -37 670 0
669 37 -670 0
-670 -40 -671 0
-670 40 671 0
670 -40 671 0
670 40 -671 0
658 671 0
-11 -12 -672 0
-11 12 672 0
11 -12 672 0
11 12 -672 0
-672 -13 -673 0
-672 13 673 0
672 -13 673 0
672 13 -673 0
-673 -16 -674 0
-673 16 674 0
673 -16 674 0
673 16 -674 0
-674 -18 -675 0
-674 18 675 0
674 -18 675 0
674 18 -675 0
-675 -20 -676 0
-675 20 676 0
675 -20 676 0
675 20 -676 0
-21 -22 -677 0
-21 22 677 0
21 -22 677 0
21 22 -677 0
-677 -23 -678 0
-677 23 678 0
677 -23 678 0
677 23 -678 0
-678 -26 -679 0
-678 26 679 0
678 -26 679 0
678 26 -679 0
-679 -28 -680 0
-679 28 680 0
679 -28 680 0
679 28 -680 0
-680 -30 -681 0
-680 30 681 0
680 -30 681 0
680 30 -681 0
676 681 0
-11 -12 -682 0
-11 12 682 0
11 -12 682 0
11 12 -682 0
-682 -15 -683 0
-682 15 683 0
682 -15 683 0
682 15 -683 0
-683 -16 -684 0
-683 16 684 0
683 -16 684 0
683 16 -684 0
-684 -18 -685 0
-684 18 685 0
684 -18 685 0
684 18 -685 0
-685 -20 -686 0
-685 20 686 0
685 -20 686 0
685 20 -686 0
-31 -32 -687 0
-31 32 687 0
31 -32 687 0
31 32 -687 0
-687 -35 -688 0
-687 35 688 0
687 -35 688 0
687 35 -688 0
-688 -36 -689 0
-688 36 689 0
688 -36 689 0
688 36 -689 0
-689 -38 -690 0
-689 38 690 0
689 -38 690 0
689 38 -690 0
-690 -40 -691 0
-690 40 691 0
690 -40 691 0
690 40 -691 0
686 691 0
-13 -15 -692 0
-13 15 692 0
13 -15 692 0
13 15 -692 0
-692 -17 -693 0
-692 17 693 0
692 -17 693 0
692 17 -693 0
-693 -18 -694 0
-693 18 694 0
693 -18 694 0
693 18 -694 0
-694 -20 -695 0
-694 20 695 0
694 -20 695 0
694 20 -695 0
-3 -5 -696 0
-3 5 696 0
3 -5 696 0
3 5 -696 0
-696 -7 -697 0
-696 7 697 0
696 -7 697 0
696 7 -697 0
-697 -8 -698 0
-697 8 698 0
697 -8 698 0
697 8 -698 0
-698 -10 -699 0
-698 10 699 0
698 -10 699 0
698 10 -699 0
-699 -23 -700 0
-699 23 700 0
699 -23 700 0
699 23 -700 0
-700 -25 -701 0
-700 25 701 0
700 -25 701 0
700 25 -701 0
-701 -27 -702 0
-701 27 702 0
701 -27 702 0
701 27 -702 0
-702 -28 -703 0
-702 28 703 0
702 -28 703 0
702 28 -703 0
-703 -30 -704 0
-703 30 704 0
703 -30 704 0
703 30 -704 0
695 704 0
-1 -5 -705 0
-1 5 705 0
1 -5 705 0
1 5 -705 0
-705 -6 -706 0
-705 6 706 0
705 -6 706 0
705 6 -706 0
-706 -7 -707 0
-706 7 707 0
706 -7 707 0
706 7 -707 0
-707 -8 -708 0
-707 8 708 0
707 -8 708 0
707 8 -708 0
-708 -10 -709 0
-708 10 709 0
708 -10 709 0
708 10 -709 0
-709 -11 -710 0
-709 11 710 0
709 -11 710 0
709 11 -710 0
-710 -15 -711 0
-710 15 711 0
710 -15 711 0
710 15 -711 0
-711 -16 -712 0
-711 16 712 0
711 -16 712 0
711 16 -712 0
-712 -17 -713 0
-712 17 713 0
712 -17 713 0
712 17 -713 0
-713 -18 -714 0
-713 18 714 0
713 -18 714 0
713 18 -714 0
-714 -20 -715 0
-714 20 715 0
714 -20 715 0
714 20 -715 0
-21 -25 -716 0
-21 25 716 0
21 -25 716 0
21 25 -716 0
-716 -26 -717 0
-716 26 717 0
716 -26 717 0
716 26 -717 0
-717 -27 -718 0
-717 27 718 0
717 -27 718 0
717 27 -718 0
-718 -28 -719 0
-718 28 719 0
718 -28 719 0
718 28 -719 0
-719 -30 -720 0
-719 30 720 0
719 -30 720 0
719 30 -720 0
715 720 0
-11 -12 -721 0
-11 12 721 0
11 -12 721 0
11 12 -721 0
-721 -19 -722 0
-721 19 722 0
721 -19 722 0
721 19 -722 0
-722 -20 -723 0
-722 20 723 0
722 -20 723 0
722 20 -723 0
-21 -22 -724 0
-21 22 724 0
21 -22 724 0
21 22 -724 0
-724 -29 -725 0
-724 29 725 0
724 -29 725 0
724 29 -725 0
-725 -30 -726 0
-725 30 726 0
725 -30 726 0
725 30 -726 0
-726 -31 -727 0
-726 31 727 0
726 -31 727 0
726 31 -727 0
-727 -32 -728 0
-727 32 728 0
727 -32 728 0
727 32 -728 0
-728 -39 -729 0
-728 39 729 0
728 -39 729 0
728 39 -729 0
-729 -40 -730 0
-729 40 730 0
729 -40 730 0
729 40 -730 0
723 730 0
-1 -4 -731 0
-1 4 731 0
1 -4 731 0
1 4 -731 0
-731 -9 -732 0
-731 9 732 0
731 -9 732 0
731 9 -732 0
-732 -10 -733 0
-732 10 733 0
732 -10 733 0
732 10 -733 0
-733 -11 -734 0
-733 11 734 0
733 -11 734 0
733 11 -734 0
-734 -14 -735 0
-734 14 735 0
734 -14 735 0
734 14 -735 0
-735 -19 -736 0
-735 19 736 0
735 -19 736 0
735 19 -736 0
-736 -20 -737 0
-736 20 737 0
736 -20 737 0
736 20 -737 0
-1 -4 -738 0
-1 4 738 0
1 -4 738 0
1 4 -738 0
-738 -9 -739 0
-738 9 739 0
738 -9 739 0
738 9 -739 0
-739 -10 -740 0
-739 10 740 0
739 -10 740 0
739 10 -740 0
-740 -31 -741 0
-740 31 741 0
740 -31 741 0
740 31 -741 0
-741 -34 -742 0
-741 34 742 0
741 -34 742 0
741 34 -742 0
-742 -39 -743 0
-742 39 743 0
742 -39 743 0
742 39 -743 0
-743 -40 -744 0
-743 40 744 0
743 -40 744 0
743 40 -744 0
737 744 0
-12 -14 -745 0
-12 14 745 0
12 -14 745 0
12 14 -745 0
-745 -19 -746 0
-745 19 746 0
745 -19 746 0
745 19 -746 0
-746 -20 -747 0
-746 20 747 0
746 -20 747 0
746 20 -747 0
-22 -24 -748 0
-22 24 748 0
22 -24 748 0
22 24 -748 0
-748 -29 -749 0
-748 29 749 0
748 -29 749 0
748 29 -749 0
-749 -30 -750 0
-749 30 750 0
749 -30 750 0
749 30 -750 0
-750 -32 -751 0
-750 32 751 0
750 -32 751 0
750 32 -751 0
-751 -34 -752 0
-751 34 752 0
751 -34 752 0
751 34 -752 0
-752 -39 -753 0
-752 39 753 0
752 -39 753 0
752 39 -753 0
-753 -40 -754 0
-753 40 754 0
753 -40 754 0
753 40 -754 0
747 754 0
-2 -3 -755 0
-2 3 755 0
2 -3 755 0
2 3 -755 0
-755 -4 -756 0
-755 4 756 0
755 -4 756 0
755 4 -756 0
-756 -9 -757 0
-756 9 757 0
756 -9 757 0
756 9 -757 0
-757 -10 -758 0
-757 10 758 0
757 -10 758 0
757 10 -758 0
-758 -12 -759 0
-758 12 759 0
758 -12 759 0
758 12 -759 0
-759 -13 -760 0
-759 13 760 0
759 -13 760 0
759 13 -760 0
-760 -14 -761 0
-760 14 761 0
760 -14 761 0
760 14 -761 0
-761 -19 -762 0
-761 19 762 0
761 -19 762 0
761 19 -762 0
-762 -20 -763 0
-762 20 763 0
762 -20 763 0
762 20 -763 0
-2 -3 -764 0
-2 3 764 0
2 -3 764 0
2 3 -764 0
-764 -4 -765 0
-764 4 765 0
764 -4 765 0
764 4 -765 0
-765 -9 -766 0
-765 9 766 0
765 -9 766 0
765 9 -766 0
-766 -10 -767 0
-766 10 767 0
766 -10 767 0
766 10 -767 0
-767 -32 -768 0
-767 32 768 0
767 -32 768 0
767 32 -768 0
-768 -33 -769 0
-768 33 769 0
768 -33 769 0
768 33 -769 0
-769 -34 -770 0
-769 34 770 0
769 -34 770 0
769 34 -770 0
-770 -39 -771 0
-770 39 771 0
770 -39 771 0
770 39 -771 0
-771 -40 -772 0
-771 40 772 0
771 -40 772 0
771 40 -772 0
763 772 0
-2 -3 -773 0
-2 3 773 0
2 -3 773 0
2 3 -773 0
-773 -5 -774 0
-773 5 774 0
773 -5 774 0
773 5 -774 0
-774 -9 -775 0
-774 9 775 0
774 -9 775 0
774 9 -775 0
-775 -10 -776 0
-775 10 776 0
775 -10 776 0
775 10 -776 0
-776 -12 -777 0
-776 12 777 0
776 -12 777 0
776 12 -777 0
-777 -13 -778 0
-777 13 778 0
777 -13 778 0
777 13 -778 0
-778 -15 -779 0
-778 15 779 0
778 -15 779 0
778 15 -779 0
-779 -19 -780 0
-779 19 780 0
779 -19 780 0
779 19 -780 0
-780 -20 -781 0
-780 20 781 0
780 -20 781 0
780 20 -781 0
-22 -23 -782 0
-22 23 782 0
22 -23 782 0
22 23 -782 0
-782 -25 -783 0
-782 25 783 0
782 -25 783 0
782 25 -783 0
-783 -29 -784 0
-783 29 784 0
783 -29 784 0
783 29 -784 0
-784 -30 -785 0
-784 30 785 0
784 -30 785 0
784 30 -785 0
-785 -32 -786 0
-785 32 786 0
785 -32 786 0
785 32 -786 0
-786 -33 -787 0
-786 33 787 0
786 -33 787 0
786 33 -787 0
-787 -35 -788 0
-787 35 788 0
787 -35 788 0
787 35 -788 0
-788 -39 -789 0
-788 39 789 0
788 -39 789 0
788 39 -789 0
-789 -40 -790 0
-789 40 790 0
789 -40 790 0
789 40 -790 0
781 790 0
-11 -12 -791 0
-11 12 791 0
11 -12 791 0
11 12 -791 0
-791 -13 -792 0
-791 13 792 0
791 -13 792 0
791 13 -792 0
-792 -15 -793 0
-792 15 793 0
792 -15 793 0
792 15 -793 0
-793 -19 -794 0
-793 19 794 0
793 -19 794 0
793 19 -794 0
-794 -20 -795 0
-794 20 795 0
794 -20 795 0
794 20 -795 0
-31 -32 -796 0
-31 32 796 0
31 -32 796 0
31 32 -796 0
-796 -33 -797 0
-796 33 797 0
796 -33 797 0
796 33 -797 0
-797 -35 -798 0
-797 35 798 0
797 -35 798 0
797 35 -798 0
-798 -39 -799 0
-798 39 799 0
798 -39 799 0
798 39 -799 0
-799 -40 -800 0
-799 40 800 0
799 -40 800 0
799 40 -800 0
795 800 0
-13 -16 -801 0
-13 16 801 0
13 -16 801 0
13 16 -801 0
-801 -17 -802 0
-801 17 802 0
801 -17 802 0
801 17 -802 0
-802 -19 -803 0
-802 19 803 0
802 -19 803 0
802 19 -803 0
-803 -20 -804 0
-803 20 804 0
803 -20 804 0
803 20 -804 0
-3 -6 -805 0
-3 6 805 0
3 -6 805 0
3 6 -805 0
-805 -7 -806 0
-805 7 806 0
805 -7 806 0
805 7 -806 0
-806 -9 -807 0
-806 9 807 0
806 -9 807 0
806 9 -807 0
-807 -10 -808 0
-807 10 808 0
807 -10 808 0
807 10 -808 0
-808 -23 -809 0
-808 23 809 0
808 -23 809 0
808 23 -809 0
-809 -26 -810 0
-809 26 810 0
809 -26 810 0
809 26 -810 0
-810 -27 -811 0
-810 27 811 0
810 -27 811 0
810 27 -811 0
-811 -29 -812 0
-811 29 812 0
811 -29 812 0
811 29 -812 0
-812 -30 -813 0
-812 30 813 0
812 -30 813 0
812 30 -813 0
-813 -33 -814 0
-813 33 814 0
813 -33 814 0
813 33 -814 0
-814 -36 -815 0
-814 36 815 0
814 -36 815 0
814 36 -815 0
-815 -37 -816 0
-815 37 816 0
815 -37 816 0
815 37 -816 0
-816 -39 -817 0
-816 39 817 0
816 -39 817 0
816 39 -817 0
-817 -40 -818 0
-817 40 818 0
817 -40 818 0
817 40 -818 0
804 818 0
-1 -2 -819 0
-1 2 819 0
1 -2 819 0
1 2 -819 0
-819 -3 -820 0
-819 3 820 0
819 -3 820 0
819 3 -820 0
-820 -6 -821 0
-820 6 821 0
820 -6 821 0
820 6 -821 0
-821 -7 -822 0
-821 7 822 0
821 -7 822 0
821 7 -822 0
-822 -9 -823 0
-822 9 823 0
822 -9 823 0
822 9 -823 0
-823 -10 -824 0
-823 10 824 0
823 -10 824 0
823 10 -824 0
-824 -11 -825 0
-824 11 825 0
824 -11 825 0
824 11 -825 0
-825 -12 -826 0
-825 12 826 0
825 -12 826 0
825 12 -826 0
-826 -13 -827 0
-826 13 827 0
826 -13 827 0
826 13 -827 0
-827 -16 -828 0
-827 16 828 0
827 -16 828 0
827 16 -828 0
-828 -17 -829 0
-828 17 829 0
828 -17 829 0
828 17 -829 0
-829 -19 -830 0
-829 19 830 0
829 -19 830 0
829 19 -830 0
-830 -20 -831 0
-830 20 831 0
830 -20 831 0
830 20 -831 0
-21 -22 -832 0
-21 22 832 0
21 -22 832 0
21 22 -832 0
-832 -23 -833 0
-832 23 833 0
832 -23 833 0
832 23 -833 0
-833 -26 -834 0
-833 26 834 0
833 -26 834 0
833 26 -834 0
-834 -27 -835 0
-834 27 835 0
834 -27 835 0
834 27 -835 0
-835 -29 -836 0
-835 29 836 0
835 -29 836 0
835 29 -836 0
-836 -30 -837 0
-836 30 837 0
836 -30 837 0
836 30 -837 0
831 837 0
-11 -14 -838 0
-11 14 838 0
11 -14 838 0
11 14 -838 0
-838 -15 -839 0
-838 15 839 0
838 -15 839 0
838 15 -839 0
-839 -16 -840 0
-839 16 840 0
839 -16 840 0
839 16 -840 0
-840 -17 -841 0
-840 17 841 0
840 -17 841 0
840 17 -841 0
-841 -19 -842 0
-841 19 842 0
841 -19 842 0
841 19 -842 0
-842 -20 -843 0
-842 20 843 0
842 -20 843 0
842 20 -843 0
-21 -24 -844 0
-21 24 844 0
21 -24 844 0
21 24 -844 0
-844 -25 -845 0
-844 25 845 0
844 -25 845 0
844 25 -845 0
-845 -26 -846 0
-845 26 846 0
845 -26 846 0
845 26 -846 0
-846 -27 -847 0
-846 27 847 0
846 -27 847 0
846 27 -847 0
-847 -29 -848 0
-847 29 848 0
847 -29 848 0
847 29 -848 0
-848 -30 -849 0
-848 30 849 0
848 -30 849 0
848 30 -849 0
843 849 0
-11 -18 -850 0
-11 18 850 0
11 -18 850 0
11 18 -850 0
-850 -19 -851 0
-850 19 851 0
850 -19 851 0
850 19 -851 0
-851 -20 -852 0
-851 20 852 0
851 -20 852 0
851 20 -852 0
-21 -28 -853 0
-21 28 853 0
21 -28 853 0
21 28 -853 0
-853 -29 -854 0
-853 29 854 0
853 -29 854 0
853 29 -854 0
-854 -30 -855 0
-854 30 855 0
854 -30 855 0
854 30 -855 0
852 855 0
-1 -2 -856 0
-1 2 856 0
1 -2 856 0
1 2 -856 0
-856 -8 -857 0
-856 8 857 0
856 -8 857 0
856 8 -857 0
-857 -9 -858 0
-857 9 858 0
857 -9 858 0
857 9 -858 0
-858 -10 -859 0
-858 10 859 0
858 -10 859 0
858 10 -859 0
-859 -11 -860 0
-859 11 860 0
859 -11 860 0
859 11 -860 0
-860 -12 -861 0
-860 12 861 0
860 -12 861 0
860 12 -861 0
-861 -18 -862 0
-861 18 862 0
861 -18 862 0
861 18 -862 0
-862 -19 -863 0
-862 19 863 0
862 -19 863 0
862 19 -863 0
-863 -20 -864 0
-863 20 864 0
863 -20 864 0
863 20 -864 0
-21 -22 -865 0
-21 22 865 0
21 -22 865 0
21 22 -865 0
-865 -28 -866 0
-865 28 866 0
865 -28 866 0
865 28 -866 0
-866 -29 -867 0
-866 29 867 0
866 -29 867 0
866 29 -867 0
-867 -30 -868 0
-867 30 868 0
867 -30 868 0
867 30 -868 0
864 868 0
-1 -2 -869 0
-1 2 869 0
1 -2 869 0
1 2 -869 0
-869 -4 -870 0
-869 4 870 0
869 -4 870 0
869 4 -870 0
-870 -5 -871 0
-870 5 871 0
870 -5 871 0
870 5 -871 0
-871 -8 -872 0
-871 8 872 0
871 -8 872 0
871 8 -872 0
-872 -9 -873 0
-872 9 873 0
872 -9 873 0
872 9 -873 0
-873 -10 -874 0
-873 10 874 0
873 -10 874 0
873 10 -874 0
-874 -11 -875 0
-874 11 875 0
874 -11 875 0
874 11 -875 0
-875 -12 -876 0
-875 12 876 0
875 -12 876 0
875 12 -876 0
-876 -14 -877 0
-876 14 877 0
876 -14 877 0
876 14 -877 0
-877 -15 -878 0
-877 15 878 0
877 -15 878 0
877 15 -878 0
-878 -18 -879 0
-878 18 879 0
878 -18 879 0
878 18 -879 0
-879 -19 -880 0
-879 19 880 0
879 -19 880 0
879 19 -880 0
-880 -20 -881 0
-880 20 881 0
880 -20 881 0
880 20 -881 0
-31 -32 -882 0
-31 32 882 0
31 -32 882 0
31 32 -882 0
-882 -34 -883 0
-882 34 883 0
882 -34 883 0
882 34 -883 0
-883 -35 -884 0
-883 35 884 0
883 -35 884 0
883 35 -884 0
-884 -38 -885 0
-884 38 885 0
884 -38 885 0
884 38 -885 0
-885 -39 -886 0
-885 39 886 0
885 -39 886 0
885 39 -886 0
-886 -40 -887 0
-886 40 887 0
886 -40 887 0
886 40 -887 0
881 887 0
-1 -3 -888 0
-1 3 888 0
1 -3 888 0
1 3 -888 0
-888 -4 -889 0
-888 4 889 0
888 -4 889 0
888 4 -889 0
-889 -6 -890 0
-889 6 890 0
889 -6 890 0
889 6 -890 0
-890 -7 -891 0
-890 7 891 0
890 -7 891 0
890 7 -891 0
-891 -8 -892 0
-891 8 892 0
891 -8 892 0
891 8 -892 0
-892 -9 -893 0
-892 9 893 0
892 -9 893 0
892 9 -893 0
-893 -10 -894 0
-893 10 894 0
893 -10 894 0
893 10 -894 0
-894 -11 -895 0
-894 11 895 0
894 -11 895 0
894 11 -895 0
-895 -13 -896 0
-895 13 896 0
895 -13 896 0
895 13 -896 0
-896 -14 -897 0
-896 14 897 0
896 -14 897 0
896 14 -897 0
-897 -16 -898 0
-897 16 898 0
897 -16 898 0
897 16 -898 0
-898 -17 -899 0
-898 17 899 0
898 -17 899 0
898 17 -899 0
-899 -18 -900 0
-899 18 900 0
899 -18 900 0
899 18 -900 0
-900 -19 -901 0
-900 19 901 0
900 -19 901 0
900 19 -901 0
-901 -20 -902 0
-901 20 902 0
901 -20 902 0
901 20 -902 0
-1 -3 -903 0
-1 3 903 0
1 -3 903 0
1 3 -903 0
-903 -4 -904 0
-903 4 904 0
903 -4 904 0
903 4 -904 0
-904 -6 -905 0
-904 6 905 0
904 -6 905 0
904 6 -905 0
-905 -7 -906 0
-905 7 906 0
905 -7 906 0
905 7 -906 0
-906 -8 -907 0
-906 8 907 0
906 -8 907 0
906 8 -907 0
-907 -9 -908 0
-907 9 908 0
907 -9 908 0
907 9 -908 0
-908 -10 -909 0
-908 10 909 0
908 -10 909 0
908 10 -909 0
-909 -21 -910 0
-909 21 910 0
909 -21 910 0
909 21 -910 0
-910 -23 -911 0
-910 23 911 0
910 -23 911 0
910 23 -911 0
-911 -24 -912 0
-911 24 912 0
911 -24 912 0
911 24 -912 0
-912 -26 -913 0
-912 26 913 0
912 -26 913 0
912 26 -913 0
-913 -27 -914 0
-913 27 914 0
913 -27 914 0
913 27 -914 0
-914 -28 -915 0
-914 28 915 0
914 -28 915 0
914 28 -915 0
-915 -29 -916 0
-915 29 916 0
915 -29 916 0
915 29 -916 0
-916 -30 -917 0
-916 30 917 0
916 -30 917 0
916 30 -917 0
902 917 0
-1 -3 -918 0
-1 3 918 0
1 -3 918 0
1 3 -918 0
-918 -5 -919 0
-918 5 919 0
918 -5 919 0
918 5 -919 0
-919 -6 -920 0
-919 6 920 0
919 -6 920 0
919 6 -920 0
-920 -7 -921 0
-920 7 921 0
920 -7 921 0
920 7 -921 0
-921 -8 -922 0
-921 8 922 0
921 -8 922 0
921 8 -922 0
-922 -9 -923 0
-922 9 923 0
922 -9 923 0
922 9 -923 0
-923 -10 -924 0
-923 10 924 0
923 -10 924 0
923 10 -924 0
-924 -11 -925 0
-924 11 925 0
924 -11 925 0
924 11 -925 0
-925 -13 -926 0
-925 13 926 0
925 -13 926 0
925 13 -926 0
-926 -15 -927 0
-926 15 927 0
926 -15 927 0
926 15 -927 0
-927 -16 -928 0
-927 16 928 0
927 -16 928 0
927 16 -928 0
-928 -17 -929 0
-928 17 929 0
928 -17 929 0
928 17 -929 0
-929 -18 -930 0
-929 18 930 0
929 -18 930 0
929 18 -930 0
-930 -19 -931 0
-930 19 931 0
930 -19 931 0
930 19 -931 0
-931 -20 -932 0
-931 20 932 0
931 -20 932 0
931 20 -932 0
-1 -3 -933 0
-1 3 933 0
1 -3 933 0
1 3 -933 0
-933 -5 -934 0
-933 5 934 0
933 -5 934 0
933 5 -934 0
-934 -6 -935 0
-934 6 935 0
934 -6 935 0
934 6 -935 0
-935 -7 -936 0
-935 7 936 0
935 -7 936 0
935 7 -936 0
-936 -8 -937 0
-936 8 937 0
936 -8 937 0
936 8 -937 0
-937 -9 -938 0
-937 9 938 0
937 -9 938 0
937 9 -938 0
-938 -10 -939 0
-938 10 939 0
938 -10 939 0
938 10 -939 0
-939 -21 -940 0
-939 21 940 0
939 -21 940 0
939 21 -940 0
-940 -23 -941 0
-940 23 941 0
940 -23 941 0
940 23 -941 0
-941 -25 -942 0
-941 25 942 0
941 -25 942 0
941 25 -942 0
-942 -26 -943 0
-942 26 943 0
942 -26 943 0
942 26 -943 0
-943 -27 -944 0
-943 27 944 0
943 -27 944 0
943 27 -944 0
-944 -28 -945 0
-944 28 945 0
944 -28 945 0
944 28 -945 0
-945 -29 -946 0
-945 29 946 0
945 -29 946 0
945 29 -946 0
-946 -30 -947 0
-946 30 947 0
946 -30 947 0
946 30 -947 0
932 947 0
-948 22 0
948 -22 0
-2 -12 -949 0
-2 12 949 0
2 -12 949 0
2 12 -949 0
-949 -32 -950 0
-949 32 950 0
949 -32 950 0
949 32 -950 0
948 950 0
-2 -4 -951 0
-2 4 951 0
2 -4 951 0
2 4 -951 0
-951 -22 -952 0
-951 22 952 0
951 -22 952 0
951 22 -952 0
-952 -24 -953 0
-952 24 953 0
952 -24 953 0
952 24 -953 0
-32 -34 -954 0
-32 34 954 0
32 -34 954 0
32 34 -954 0
953 954 0
-23 -24 -955 0
-23 24 955 0
23 -24 955 0
23 24 -955 0
-955 -25 -956 0
-955 25 956 0
955 -25 956 0
955 25 -956 0
-33 -34 -957 0
-33 34 957 0
33 -34 957 0
33 34 -957 0
-957 -35 -958 0
-957 35 958 0
957 -35 958 0
957 35 -958 0
956 958 0
-22 -23 -959 0
-22 23 959 0
22 -23 959 0
22 23 -959 0
-959 -24 -960 0
-959 24 960 0
959 -24 960 0
959 24 -960 0
-960 -25 -961 0
-960 25 961 0
960 -25 961 0
960 25 -961 0
-12 -13 -962 0
-12 13 962 0
12 -13 962 0
12 13 -962 0
-962 -14 -963 0
-962 14 963 0
962 -14 963 0
962 14 -963 0
-963 -15 -964 0
-963 15 964 0
963 -15 964 0
963 15 -964 0
-964 -32 -965 0
-964 32 965 0
964 -32 965 0
964 32 -965 0
-965 -33 -966 0
-965 33 966 0
965 -33 966 0
965 33 -966 0
-966 -34 -967 0
-966 34 967 0
966 -34 967 0
966 34 -967 0
-967 -35 -968 0
-967 35 968 0
967 -35 968 0
967 35 -968 0
961 968 0
-1 -3 -969 0
-1 3 969 0
1 -3 969 0
1 3 -969 0
-969 -4 -970 0
-969 4 970 0
969 -4 970 0
969 4 -970 0
-970 -6 -971 0
-970 6 971 0
970 -6 971 0
970 6 -971 0
-971 -11 -972 0
-971 11 972 0
971 -11 972 0
971 11 -972 0
-972 -13 -973 0
-972 13 973 0
972 -13 973 0
972 13 -973 0
-973 -14 -974 0
-973 14 974 0
973 -14 974 0
973 14 -974 0
-974 -16 -975 0
-974 16 975 0
974 -16 975 0
974 16 -975 0
-975 -21 -976 0
-975 21 976 0
975 -21 976 0
975 21 -976 0
-976 -23 -977 0
-976 23 977 0
976 -23 977 0
976 23 -977 0
-977 -24 -978 0
-977 24 978 0
977 -24 978 0
977 24 -978 0
-978 -26 -979 0
-978 26 979 0
978 -26 979 0
978 26 -979 0
-31 -33 -980 0
-31 33 980 0
31 -33 980 0
31 33 -980 0
-980 -34 -981 0
-980 34 981 0
980 -34 981 0
980 34 -981 0
-981 -36 -982 0
-981 36 982 0
981 -36 982 0
981 36 -982 0
979 982 0
-3 -4 -983 0
-3 4 983 0
3 -4 983 0
3 4 -983 0
-983 -5 -984 0
-983 5 984 0
983 -5 984 0
983 5 -984 0
-984 -6 -985 0
-984 6 985 0
984 -6 985 0
984 6 -985 0
-985 -23 -986 0
-985 23 986 0
985 -23 986 0
985 23 -986 0
-986 -24 -987 0
-986 24 987 0
986 -24 987 0
986 24 -987 0
-987 -25 -988 0
-987 25 988 0
987 -25 988 0
987 25 -988 0
-988 -26 -989 0
-988 26 989 0
988 -26 989 0
988 26 -989 0
-3 -4 -990 0
-3 4 990 0
3 -4 990 0
3 4 -990 0
-990 -5 -991 0
-990 5 991 0
990 -5 991 0
990 5 -991 0
-991 -6 -992 0
-991 6 992 0
991 -6 992 0
991 6 -992 0
-992 -33 -993 0
-992 33 993 0
992 -33 993 0
992 33 -993 0
-993 -34 -994 0
-993 34 994 0
993 -34 994 0
993 34 -994 0
-994 -35 -995 0
-994 35 995 0
994 -35 995 0
994 35 -995 0
-995 -36 -996 0
-995 36 996 0
995 -36 996 0
995 36 -996 0
989 996 0
-22 -24 -997 0
-22 24 997 0
22 -24 997 0
22 24 -997 0
-997 -27 -998 0
-997 27 998 0
997 -27 998 0
997 27 -998 0
-12 -14 -999 0
-12 14 999 0
12 -14 999 0
12 14 -999 0
-999 -17 -1000 0
-999 17 1000 0
999 -17 1000 0
999 17 -1000 0
-1000 -32 -1001 0
-1000 32 1001 0
1000 -32 1001 0
1000 32 -1001 0
-1001 -34 -1002 0
-1001 34 1002 0
1001 -34 1002 0
1001 34 -1002 0
-1002 -37 -1003 0
-1002 37 1003 0
1002 -37 1003 0
1002 37 -1003 0
998 1003 0
-23 -25 -1004 0
-23 25 1004 0
23 -25 1004 0
23 25 -1004 0
-1004 -27 -1005 0
-1004 27 1005 0
1004 -27 1005 0
1004 27 -1005 0
-13 -15 -1006 0
-13 15 1006 0
13 -15 1006 0
13 15 -1006 0
-1006 -17 -1007 0
-1006 17 1007 0
1006 -17 1007 0
1006 17 -1007 0
-1007 -33 -1008 0
-1007 33 1008 0
1007 -33 1008 0
1007 33 -1008 0
-1008 -35 -1009 0
-1008 35 1009 0
1008 -35 1009 0
1008 35 -1009 0
-1009 -37 -1010 0
-1009 37 1010 0
1009 -37 1010 0
1009 37 -1010 0
1005 1010 0
-13 -18 -1011 0
-13 18 1011 0
13 -18 1011 0
13 18 -1011 0
-1011 -23 -1012 0
-1011 23 1012 0
1011 -23 1012 0
1011 23 -1012 0
-1012 -28 -1013 0
-1012 28 1013 0
1012 -28 1013 0
1012 28 -1013 0
-3 -8 -1014 0
-3 8 1014 0
3 -8 1014 0
3 8 -1014 0
-1014 -33 -1015 0
-1014 33 1015 0
1014 -33 1015 0
1014 33 -1015 0
-1015 -38 -1016 0
-1015 38 1016 0
1015 -38 1016 0
1015 38 -1016 0
1013 1016 0
-2 -3 -1017 0
-2 3 1017 0
2 -3 1017 0
2 3 -1017 0
-1017 -8 -1018 0
-1017 8 1018 0
1017 -8 1018 0
1017 8 -1018 0
-1018 -12 -1019 0
-1018 12 1019 0
1018 -12 1019 0
1018 12 -1019 0
-1019 -13 -1020 0
-1019 13 1020 0
1019 -13 1020 0
1019 13 -1020 0
-1020 -18 -1021 0
-1020 18 1021 0
1020 -18 1021 0
1020 18 -1021 0
-1021 -22 -1022 0
-1021 22 1022 0
1021 -22 1022 0
1021 22 -1022 0
-1022 -23 -1023 0
-1022 23 1023 0
1022 -23 1023 0
1022 23 -1023 0
-1023 -28 -1024 0
-1023 28 1024 0
1023 -28 1024 0
1023 28 -1024 0
-32 -33 -1025 0
-32 33 1025 0
32 -33 1025 0
32 33 -1025 0
-1025 -38 -1026 0
-1025 38 1026 0
1025 -38 1026 0
1025 38 -1026 0
1024 1026 0
-13 -14 -1027 0
-13 14 1027 0
13 -14 1027 0
13 14 -1027 0
-1027 -18 -1028 0
-1027 18 1028 0
1027 -18 1028 0
1027 18 -1028 0
-1028 -23 -1029 0
-1028 23 1029 0
1028 -23 1029 0
1028 23 -1029 0
-1029 -24 -1030 0
-1029 24 1030 0
1029 -24 1030 0
1029 24 -1030 0
-1030 -28 -1031 0
-1030 28 1031 0
1030 -28 1031 0
1030 28 -1031 0
-33 -34 -1032 0
-33 34 1032 0
33 -34 1032 0
33 34 -1032 0
-1032 -38 -1033 0
-1032 38 1033 0
1032 -38 1033 0
1032 38 -1033 0
1031 1033 0
-1 -2 -1034 0
-1 2 1034 0
1 -2 1034 0
1 2 -1034 0
-1034 -4 -1035 0
-1034 4 1035 0
1034 -4 1035 0
1034 4 -1035 0
-1035 -6 -1036 0
-1035 6 1036 0
1035 -6 1036 0
1035 6 -1036 0
-1036 -8 -1037 0
-1036 8 1037 0
1036 -8 1037 0
1036 8 -1037 0
-1037 -11 -1038 0
-1037 11 1038 0
1037 -11 1038 0
1037 11 -1038 0
-1038 -12 -1039 0
-1038 12 1039 0
1038 -12 1039 0
1038 12 -1039 0
-1039 -14 -1040 0
-1039 14 1040 0
1039 -14 1040 0
1039 14 -1040 0
-1040 -16 -1041 0
-1040 16 1041 0
1040 -16 1041 0
1040 16 -1041 0
-1041 -18 -1042 0
-1041 18 1042 0
1041 -18 1042 0
1041 18 -1042 0
-1042 -21 -1043 0
-1042 21 1043 0
1042 -21 1043 0
1042 21 -1043 0
-1043 -22 -1044 0
-1043 22 1044 0
1043 -22 1044 0
1043 22 -1044 0
-1044 -24 -1045 0
-1044 24 1045 0
1044 -24 1045 0
1044 24 -1045 0
-1045 -26 -1046 0
-1045 26 1046 0
1045 -26 1046 0
1045 26 -1046 0
-1046 -28 -1047 0
-1046 28 1047 0
1046 -28 1047 0
1046 28 -1047 0
-31 -32 -1048 0
-31 32 1048 0
31 -32 1048 0
31 32 -1048 0
-1048 -34 -1049 0
-1048 34 1049 0
1048 -34 1049 0
1048 34 -1049 0
-1049 -36 -1050 0
-1049 36 1050 0
1049 -36 1050 0
1049 36 -1050 0
-1050 -38 -1051 0
-1050 38 1051 0
1050 -38 1051 0
1050 38 -1051 0
1047 1051 0
-2 -7 -1052 0
-2 7 1052 0
2 -7 1052 0
2 7 -1052 0
-1052 -8 -1053 0
-1052 8 1053 0
1052 -8 1053 0
1052 8 -1053 0
-1053 -22 -1054 0
-1053 22 1054 0
1053 -22 1054 0
1053 22 -1054 0
-1054 -27 -1055 0
-1054 27 1055 0
1054 -27 1055 0
1054 27 -1055 0
-1055 -28 -1056 0
-1055 28 1056 0
1055 -28 1056 0
1055 28 -1056 0
-2 -7 -1057 0
-2 7 1057 0
2 -7 1057 0
2 7 -1057 0
-1057 -8 -1058 0
-1057 8 1058 0
1057 -8 1058 0
1057 8 -1058 0
-1058 -32 -1059 0
-1058 32 1059 0
1058 -32 1059 0
1058 32 -1059 0
-1059 -37 -1060 0
-1059 37 1060 0
1059 -37 1060 0
1059 37 -1060 0
-1060 -38 -1061 0
-1060 38 1061 0
1060 -38 1061 0
1060 38 -1061 0
1056 1061 0
-3 -5 -1062 0
-3 5 1062 0
3 -5 1062 0
3 5 -1062 0
-1062 -6 -1063 0
-1062 6 1063 0
1062 -6 1063 0
1062 6 -1063 0
-1063 -7 -1064 0
-1063 7 1064 0
1063 -7 1064 0
1063 7 -1064 0
-1064 -8 -1065 0
-1064 8 1065 0
1064 -8 1065 0
1064 8 -1065 0
-1065 -23 -1066 0
-1065 23 1066 0
1065 -23 1066 0
1065 23 -1066 0
-1066 -25 -1067 0
-1066 25 1067 0
1066 -25 1067 0
1066 25 -1067 0
-1067 -26 -1068 0
-1067 26 1068 0
1067 -26 1068 0
1067 26 -1068 0
-1068 -27 -1069 0
-1068 27 1069 0
1068 -27 1069 0
1068 27 -1069 0
-1069 -28 -1070 0
-1069 28 1070 0
1069 -28 1070 0
1069 28 -1070 0
-13 -15 -1071 0
-13 15 1071 0
13 -15 1071 0
13 15 -1071 0
-1071 -16 -1072 0
-1071 16 1072 0
1071 -16 1072 0
1071 16 -1072 0
-1072 -17 -1073 0
-1072 17 1073 0
1072 -17 1073 0
1072 17 -1073 0
-1073 -18 -1074 0
-1073 18 1074 0
1073 -18 1074 0
1073 18 -1074 0
-1074 -33 -1075 0
-1074 33 1075 0
1074 -33 1075 0
1074 33 -1075 0
-1075 -35 -1076 0
-1075 35 1076 0
1075 -35 1076 0
1075 35 -1076 0
-1076 -36 -1077 0
-1076 36 1077 0
1076 -36 1077 0
1076 36 -1077 0
-1077 -37 -1078 0
-1077 37 1078 0
1077 -37 1078 0
1077 37 -1078 0
-1078 -38 -1079 0
-1078 38 1079 0
1078 -38 1079 0
1078 38 -1079 0
1070 1079 0
-2 -3 -1080 0
-2 3 1080 0
2 -3 1080 0
2 3 -1080 0
-1080 -4 -1081 0
-1080 4 1081 0
1080 -4 1081 0
1080 4 -1081 0
-1081 -5 -1082 0
-1081 5 1082 0
1081 -5 1082 0
1081 5 -1082 0
-1082 -6 -1083 0
-1082 6 1083 0
1082 -6 1083 0
1082 6 -1083 0
-1083 -7 -1084 0
-1083 7 1084 0
1083 -7 1084 0
1083 7 -1084 0
-1084 -8 -1085 0
-1084 8 1085 0
1084 -8 1085 0
1084 8 -1085 0
-1085 -22 -1086 0
-1085 22 1086 0
1085 -22 1086 0
1085 22 -1086 0
-1086 -23 -1087 0
-1086 23 1087 0
1086 -23 1087 0
1086 23 -1087 0
-1087 -24 -1088 0
-1087 24 1088 0
1087 -24 1088 0
1087 24 -1088 0
-1088 -25 -1089 0
-1088 25 1089 0
1088 -25 1089 0
1088 25 -1089 0
-1089 -26 -1090 0
-1089 26 1090 0
1089 -26 1090 0
1089 26 -1090 0
-1090 -27 -1091 0
-1090 27 1091 0
1090 -27 1091 0
1090 27 -1091 0
-1091 -28 -1092 0
-1091 28 1092 0
1091 -28 1092 0
1091 28 -1092 0
-2 -3 -1093 0
-2 3 1093 0
2 -3 1093 0
2 3 -1093 0
-1093 -4 -1094 0
-1093 4 1094 0
1093 -4 1094 0
1093 4 -1094 0
-1094 -5 -1095 0
-1094 5 1095 0
1094 -5 1095 0
1094 5 -1095 0
-1095 -6 -1096 0
-1095 6 1096 0
1095 -6 1096 0
1095 6 -1096 0
-1096 -7 -1097 0
-1096 7 1097 0
1096 -7 1097 0
1096 7 -1097 0
-1097 -8 -1098 0
-1097 8 1098 0
1097 -8 1098 0
1097 8 -1098 0
-1098 -32 -1099 0
-1098 32 1099 0
1098 -32 1099 0
1098 32 -1099 0
-1099 -33 -1100 0
-1099 33 1100 0
1099 -33 1100 0
1099 33 -1100 0
-1100 -34 -1101 0
-1100 34 1101 0
1100 -34 1101 0
1100 34 -1101 0
-1101 -35 -1102 0
-1101 35 1102 0
1101 -35 1102 0
1101 35 -1102 0
-1102 -36 -1103 0
-1102 36 1103 0
1102 -36 1103 0
1102 36 -1103 0
-1103 -37 -1104 0
-1103 37 1104 0
1103 -37 1104 0
1103 37 -1104 0
-1104 -38 -1105 0
-1104 38 1105 0
1104 -38 1105 0
1104 38 -1105 0
1092 1105 0
-1 -3 -1106 0
-1 3 1106 0
1 -3 1106 0
1 3 -1106 0
-1106 -9 -1107 0
-1106 9 1107 0
1106 -9 1107 0
1106 9 -1107 0
-1107 -21 -1108 0
-1107 21 1108 0
1107 -21 1108 0
1107 21 -1108 0
-1108 -23 -1109 0
-1108 23 1109 0
1108 -23 1109 0
1108 23 -1109 0
-1109 -29 -1110 0
-1109 29 1110 0
1109 -29 1110 0
1109 29 -1110 0
-31 -33 -1111 0
-31 33 1111 0
31 -33 1111 0
31 33 -1111 0
-1111 -39 -1112 0
-1111 39 1112 0
1111 -39 1112 0
1111 39 -1112 0
1110 1112 0
-1 -2 -1113 0
-1 2 1113 0
1 -2 1113 0
1 2 -1113 0
-1113 -3 -1114 0
-1113 3 1114 0
1113 -3 1114 0
1113 3 -1114 0
-1114 -4 -1115 0
-1114 4 1115 0
1114 -4 1115 0
1114 4 -1115 0
-1115 -9 -1116 0
-1115 9 1116 0
1115 -9 1116 0
1115 9 -1116 0
-1116 -21 -1117 0
-1116 21 1117 0
1116 -21 1117 0
1116 21 -1117 0
-1117 -22 -1118 0
-1117 22 1118 0
1117 -22 1118 0
1117 22 -1118 0
-1118 -23 -1119 0
-1118 23 1119 0
1118 -23 1119 0
1118 23 -1119 0
-1119 -24 -1120 0
-1119 24 1120 0
1119 -24 1120 0
1119 24 -1120 0
-1120 -29 -1121 0
-1120 29 1121 0
1120 -29 1121 0
1120 29 -1121 0
-31 -32 -1122 0
-31 32 1122 0
31 -32 1122 0
31 32 -1122 0
-1122 -33 -1123 0
-1122 33 1123 0
1122 -33 1123 0
1122 33 -1123 0
-1123 -34 -1124 0
-1123 34 1124 0
1123 -34 1124 0
1123 34 -1124 0
-1124 -39 -1125 0
-1124 39 1125 0
1124 -39 1125 0
1124 39 -1125 0
1121 1125 0
-1 -3 -1126 0
-1 3 1126 0
1 -3 1126 0
1 3 -1126 0
-1126 -4 -1127 0
-1126 4 1127 0
1126 -4 1127 0
1126 4 -1127 0
-1127 -5 -1128 0
-1127 5 1128 0
1127 -5 1128 0
1127 5 -1128 0
-1128 -9 -1129 0
-1128 9 1129 0
1128 -9 1129 0
1128 9 -1129 0
-1129 -21 -1130 0
-1129 21 1130 0
1129 -21 1130 0
1129 21 -1130 0
-1130 -23 -1131 0
-1130 23 1131 0
1130 -23 1131 0
1130 23 -1131 0
-1131 -24 -1132 0
-1131 24 1132 0
1131 -24 1132 0
1131 24 -1132 0
-1132 -25 -1133 0
-1132 25 1133 0
1132 -25 1133 0
1132 25 -1133 0
-1133 -29 -1134 0
-1133 29 1134 0
1133 -29 1134 0
1133 29 -1134 0
-11 -13 -1135 0
-11 13 1135 0
11 -13 1135 0
11 13 -1135 0
-1135 -14 -1136 0
-1135 14 1136 0
1135 -14 1136 0
1135 14 -1136 0
-1136 -15 -1137 0
-1136 15 1137 0
1136 -15 1137 0
1136 15 -1137 0
-1137 -19 -1138 0
-1137 19 1138 0
1137 -19 1138 0
1137 19 -1138 0
-1138 -31 -1139 0
-1138 31 1139 0
1138 -31 1139 0
1138 31 -1139 0
-1139 -33 -1140 0
-1139 33 1140 0
1139 -33 1140 0
1139 33 -1140 0
-1140 -34 -1141 0
-1140 34 1141 0
1140 -34 1141 0
1140 34 -1141 0
-1141 -35 -1142 0
-1141 35 1142 0
1141 -35 1142 0
1141 35 -1142 0
-1142 -39 -1143 0
-1142 39 1143 0
1142 -39 1143 0
1142 39 -1143 0
1134 1143 0
-24 -25 -1144 0
-24 25 1144 0
24 -25 1144 0
24 25 -1144 0
-1144 -26 -1145 0
-1144 26 1145 0
1144 -26 1145 0
1144 26 -1145 0
-1145 -29 -1146 0
-1145 29 1146 0
1145 -29 1146 0
1145 29 -1146 0
-4 -5 -1147 0
-4 5 1147 0
4 -5 1147 0
4 5 -1147 0
-1147 -6 -1148 0
-1147 6 1148 0
1147 -6 1148 0
1147 6 -1148 0
-1148 -9 -1149 0
-1148 9 1149 0
1148 -9 1149 0
1148 9 -1149 0
-1149 -34 -1150 0
-1149 34 1150 0
1149 -34 1150 0
1149 34 -1150 0
-1150 -35 -1151 0
-1150 35 1151 0
1150 -35 1151 0
1150 35 -1151 0
-1151 -36 -1152 0
-1151 36 1152 0
1151 -36 1152 0
1151 36 -1152 0
-1152 -39 -1153 0
-1152 39 1153 0
1152 -39 1153 0
1152 39 -1153 0
1146 1153 0
-12 -13 -1154 0
-12 13 1154 0
12 -13 1154 0
12 13 -1154 0
-1154 -14 -1155 0
-1154 14 1155 0
1154 -14 1155 0
1154 14 -1155 0
-1155 -15 -1156 0
-1155 15 1156 0
1155 -15 1156 0
1155 15 -1156 0
-1156 -16 -1157 0
-1156 16 1157 0
1156 -16 1157 0
1156 16 -1157 0
-1157 -19 -1158 0
-1157 19 1158 0
1157 -19 1158 0
1157 19 -1158 0
-1158 -22 -1159 0
-1158 22 1159 0
1158 -22 1159 0
1158 22 -1159 0
-1159 -23 -1160 0
-1159 23 1160 0
1159 -23 1160 0
1159 23 -1160 0
-1160 -24 -1161 0
-1160 24 1161 0
1160 -24 1161 0
1160 24 -1161 0
-1161 -25 -1162 0
-1161 25 1162 0
1161 -25 1162 0
1161 25 -1162 0
-1162 -26 -1163 0
-1162 26 1163 0
1162 -26 1163 0
1162 26 -1163 0
-1163 -29 -1164 0
-1163 29 1164 0
1163 -29 1164 0
1163 29 -1164 0
-32 -33 -1165 0
-32 33 1165 0
32 -33 1165 0
32 33 -1165 0
-1165 -34 -1166 0
-1165 34 1166 0
1165 -34 1166 0
1165 34 -1166 0
-1166 -35 -1167 0
-1166 35 1167 0
1166 -35 1167 0
1166 35 -1167 0
-1167 -36 -1168 0
-1167 36 1168 0
1167 -36 1168 0
1167 36 -1168 0
-1168 -39 -1169 0
-1168 39 1169 0
1168 -39 1169 0
1168 39 -1169 0
1164 1169 0
-12 -17 -1170 0
-12 17 1170 0
12 -17 1170 0
12 17 -1170 0
-1170 -19 -1171 0
-1170 19 1171 0
1170 -19 1171 0
1170 19 -1171 0
-1171 -22 -1172 0
-1171 22 1172 0
1171 -22 1172 0
1171 22 -1172 0
-1172 -27 -1173 0
-1172 27 1173 0
1172 -27 1173 0
1172 27 -1173 0
-1173 -29 -1174 0
-1173 29 1174 0
1173 -29 1174 0
1173 29 -1174 0
-2 -7 -1175 0
-2 7 1175 0
2 -7 1175 0
2 7 -1175 0
-1175 -9 -1176 0
-1175 9 1176 0
1175 -9 1176 0
1175 9 -1176 0
-1176 -32 -1177 0
-1176 32 1177 0
1176 -32 1177 0
1176 32 -1177 0
-1177 -37 -1178 0
-1177 37 1178 0
1177 -37 1178 0
1177 37 -1178 0
-1178 -39 -1179 0
-1178 39 1179 0
1178 -39 1179 0
1178 39 -1179 0
1174 1179 0
-1 -2 -1180 0
-1 2 1180 0
1 -2 1180 0
1 2 -1180 0
-1180 -3 -1181 0
-1180 3 1181 0
1180 -3 1181 0
1180 3 -1181 0
-1181 -5 -1182 0
-1181 5 1182 0
1181 -5 1182 0
1181 5 -1182 0
-1182 -7 -1183 0
-1182 7 1183 0
1182 -7 1183 0
1182 7 -1183 0
-1183 -9 -1184 0
-1183 9 1184 0
1183 -9 1184 0
1183 9 -1184 0
-1184 -11 -1185 0
-1184 11 1185 0
1184 -11 1185 0
1184 11 -1185 0
-1185 -12 -1186 0
-1185 12 1186 0
1185 -12 1186 0
1185 12 -1186 0
-1186 -13 -1187 0
-1186 13 1187 0
1186 -13 1187 0
1186 13 -1187 0
-1187 -15 -1188 0
-1187 15 1188 0
1187 -15 1188 0
1187 15 -1188 0
-1188 -17 -1189 0
-1188 17 1189 0
1188 -17 1189 0
1188 17 -1189 0
-1189 -19 -1190 0
-1189 19 1190 0
1189 -19 1190 0
1189 19 -1190 0
-1190 -21 -1191 0
-1190 21 1191 0
1190 -21 1191 0
1190 21 -1191 0
-1191 -22 -1192 0
-1191 22 1192 0
1191 -22 1192 0
1191 22 -1192 0
-1192 -23 -1193 0
-1192 23 1193 0
1192 -23 1193 0
1192 23 -1193 0
-1193 -25 -1194 0
-1193 25 1194 0
1193 -25 1194 0
1193 25 -1194 0
-1194 -27 -1195 0
-1194 27 1195 0
1194 -27 1195 0
1194 27 -1195 0
-1195 -29 -1196 0
-1195 29 1196 0
1195 -29 1196 0
1195 29 -1196 0
-11 -12 -1197 0
-11 12 1197 0
11 -12 1197 0
11 12 -1197 0
-1197 -13 -1198 0
-1197 13 1198 0
1197 -13 1198 0
1197 13 -1198 0
-1198 -15 -1199 0
-1198 15 1199 0
1198 -15 1199 0
1198 15 -1199 0
-1199 -17 -1200 0
-1199 17 1200 0
1199 -17 1200 0
1199 17 -1200 0
-1200 -19 -1201 0
-1200 19 1201 0
1200 -19 1201 0
1200 19 -1201 0
-1201 -31 -1202 0
-1201 31 1202 0
1201 -31 1202 0
1201 31 -1202 0
-1202 -32 -1203 0
-1202 32 1203 0
1202 -32 1203 0
1202 32 -1203 0
-1203 -33 -1204 0
-1203 33 1204 0
1203 -33 1204 0
1203 33 -1204 0
-1204 -35 -1205 0
-1204 35 1205 0
1204 -35 1205 0
1204 35 -1205 0
-1205 -37 -1206 0
-1205 37 1206 0
1205 -37 1206 0
1205 37 -1206 0
-1206 -39 -1207 0
-1206 39 1207 0
1206 -39 1207 0
1206 39 -1207 0
1196 1207 0
-12 -14 -1208 0
-12 14 1208 0
12 -14 1208 0
12 14 -1208 0
-1208 -16 -1209 0
-1208 16 1209 0
1208 -16 1209 0
1208 16 -1209 0
-1209 -18 -1210 0
-1209 18 1210 0
1209 -18 1210 0
1209 18 -1210 0
-1210 -19 -1211 0
-1210 19 1211 0
1210 -19 1211 0
1210 19 -1211 0
-1211 -22 -1212 0
-1211 22 1212 0
1211 -22 1212 0
1211 22 -1212 0
-1212 -24 -1213 0
-1212 24 1213 0
1212 -24 1213 0
1212 24 -1213 0
-1213 -26 -1214 0
-1213 26 1214 0
1213 -26 1214 0
1213 26 -1214 0
-1214 -28 -1215 0
-1214 28 1215 0
1214 -28 1215 0
1214 28 -1215 0
-1215 -29 -1216 0
-1215 29 1216 0
1215 -29 1216 0
1215 29 -1216 0
-2 -4 -1217 0
-2 4 1217 0
2 -4 1217 0
2 4 -1217 0
-1217 -6 -1218 0
-1217 6 1218 0
1217 -6 1218 0
1217 6 -1218 0
-1218 -8 -1219 0
-1218 8 1219 0
1218 -8 1219 0
1218 8 -1219 0
-1219 -9 -1220 0
-1219 9 1220 0
1219 -9 1220 0
1219 9 -1220 0
-1220 -12 -1221 0
-1220 12 1221 0
1220 -12 1221 0
1220 12 -1221 0
-1221 -14 -1222 0
-1221 14 1222 0
1221 -14 1222 0
1221 14 -1222 0
-1222 -16 -1223 0
-1222 16 1223 0
1222 -16 1223 0
1222 16 -1223 0
-1223 -18 -1224 0
-1223 18 1224 0
1223 -18 1224 0
1223 18 -1224 0
-1224 -19 -1225 0
-1224 19 1225 0
1224 -19 1225 0
1224 19 -1225 0
-1225 -32 -1226 0
-1225 32 1226 0
1225 -32 1226 0
1225 32 -1226 0
-1226 -34 -1227 0
-1226 34 1227 0
1226 -34 1227 0
1226 34 -1227 0
-1227 -36 -1228 0
-1227 36 1228 0
1227 -36 1228 0
1227 36 -1228 0
-1228 -38 -1229 0
-1228 38 1229 0
1228 -38 1229 0
1228 38 -1229 0
-1229 -39 -1230 0
-1229 39 1230 0
1229 -39 1230 0
1229 39 -1230 0
1216 1230 0
-12 -15 -1231 0
-12 15 1231 0
12 -15 1231 0
12 15 -1231 0
-1231 -16 -1232 0
-1231 16 1232 0
1231 -16 1232 0
1231 16 -1232 0
-1232 -18 -1233 0
-1232 18 1233 0
1232 -18 1233 0
1232 18 -1233 0
-1233 -19 -1234 0
-1233 19 1234 0
1233 -19 1234 0
1233 19 -1234 0
-1234 -22 -1235 0
-1234 22 1235 0
1234 -22 1235 0
1234 22 -1235 0
-1235 -25 -1236 0
-1235 25 1236 0
1235 -25 1236 0
1235 25 -1236 0
-1236 -26 -1237 0
-1236 26 1237 0
1236 -26 1237 0
1236 26 -1237 0
-1237 -28 -1238 0
-1237 28 1238 0
1237 -28 1238 0
1237 28 -1238 0
-1238 -29 -1239 0
-1238 29 1239 0
1238 -29 1239 0
1238 29 -1239 0
-32 -35 -1240 0
-32 35 1240 0
32 -35 1240 0
32 35 -1240 0
-1240 -36 -1241 0
-1240 36 1241 0
1240 -36 1241 0
1240 36 -1241 0
-1241 -38 -1242 0
-1241 38 1242 0
1241 -38 1242 0
1241 38 -1242 0
-1242 -39 -1243 0
-1242 39 1243 0
1242 -39 1243 0
1242 39 -1243 0
1239 1243 0
-1 -2 -1244 0
-1 2 1244 0
1 -2 1244 0
1 2 -1244 0
-1244 -5 -1245 0
-1244 5 1245 0
1244 -5 1245 0
1244 5 -1245 0
-1245 -6 -1246 0
-1245 6 1246 0
1245 -6 1246 0
1245 6 -1246 0
-1246 -8 -1247 0
-1246 8 1247 0
1246 -8 1247 0
1246 8 -1247 0
-1247 -9 -1248 0
-1247 9 1248 0
1247 -9 1248 0
1247 9 -1248 0
-1248 -11 -1249 0
-1248 11 1249 0
1248 -11 1249 0
1248 11 -1249 0
-1249 -12 -1250 0
-1249 12 1250 0
1249 -12 1250 0
1249 12 -1250 0
-1250 -15 -1251 0
-1250 15 1251 0
1250 -15 1251 0
1250 15 -1251 0
-1251 -16 -1252 0
-1251 16 1252 0
1251 -16 1252 0
1251 16 -1252 0
-1252 -18 -1253 0
-1252 18 1253 0
1252 -18 1253 0
1252 18 -1253 0
-1253 -19 -1254 0
-1253 19 1254 0
1253 -19 1254 0
1253 19 -1254 0
-1254 -21 -1255 0
-1254 21 1255 0
1254 -21 1255 0
1254 21 -1255 0
-1255 -22 -1256 0
-1255 22 1256 0
1255 -22 1256 0
1255 22 -1256 0
-1256 -25 -1257 0
-1256 25 1257 0
1256 -25 1257 0
1256 25 -1257 0
-1257 -26 -1258 0
-1257 26 1258 0
1257 -26 1258 0
1257 26 -1258 0
-1258 -28 -1259 0
-1258 28 1259 0
1258 -28 1259 0
1258 28 -1259 0
-1259 -29 -1260 0
-1259 29 1260 0
1259 -29 1260 0
1259 29 -1260 0
-1 -2 -1261 0
-1 2 1261 0
1 -2 1261 0
1 2 -1261 0
-1261 -5 -1262 0
-1261 5 1262 0
1261 -5 1262 0
1261 5 -1262 0
-1262 -6 -1263 0
-1262 6 1263 0
1262 -6 1263 0
1262 6 -1263 0
-1263 -8 -1264 0
-1263 8 1264 0
1263 -8 1264 0
1263 8 -1264 0
-1264 -9 -1265 0
-1264 9 1265 0
1264 -9 1265 0
1264 9 -1265 0
-1265 -11 -1266 0
-1265 11 1266 0
1265 -11 1266 0
1265 11 -1266 0
-1266 -12 -1267 0
-1266 12 1267 0
1266 -12 1267 0
1266 12 -1267 0
-1267 -15 -1268 0
-1267 15 1268 0
1267 -15 1268 0
1267 15 -1268 0
-1268 -16 -1269 0
-1268 16 1269 0
1268 -16 1269 0
1268 16 -1269 0
-1269 -18 -1270 0
-1269 18 1270 0
1269 -18 1270 0
1269 18 -1270 0
-1270 -19 -1271 0
-1270 19 1271 0
1270 -19 1271 0
1270 19 -1271 0
-1271 -31 -1272 0
-1271 31 1272 0
1271 -31 1272 0
1271 31 -1272 0
-1272 -32 -1273 0
-1272 32 1273 0
1272 -32 1273 0
1272 32 -1273 0
-1273 -35 -1274 0
-1273 35 1274 0
1273 -35 1274 0
1273 35 -1274 0
-1274 -36 -1275 0
-1274 36 1275 0
1274 -36 1275 0
1274 36 -1275 0
-1275 -38 -1276 0
-1275 38 1276 0
1275 -38 1276 0
1275 38 -1276 0
-1276 -39 -1277 0
-1276 39 1277 0
1276 -39 1277 0
1276 39 -1277 0
1260 1277 0
-12 -14 -1278 0
-12 14 1278 0
12 -14 1278 0
12 14 -1278 0
-1278 -15 -1279 0
-1278 15 1279 0
1278 -15 1279 0
1278 15 -1279 0
-1279 -16 -1280 0
-1279 16 1280 0
1279 -16 1280 0
1279 16 -1280 0
-1280 -18 -1281 0
-1280 18 1281 0
1280 -18 1281 0
1280 18 -1281 0
-1281 -19 -1282 0
-1281 19 1282 0
1281 -19 1282 0
1281 19 -1282 0
-1282 -22 -1283 0
-1282 22 1283 0
1282 -22 1283 0
1282 22 -1283 0
-1283 -24 -1284 0
-1283 24 1284 0
1283 -24 1284 0
1283 24 -1284 0
-1284 -25 -1285 0
-1284 25 1285 0
1284 -25 1285 0
1284 25 -1285 0
-1285 -26 -1286 0
-1285 26 1286 0
1285 -26 1286 0
1285 26 -1286 0
-1286 -28 -1287 0
-1286 28 1287 0
1286 -28 1287 0
1286 28 -1287 0
-1287 -29 -1288 0
-1287 29 1288 0
1287 -29 1288 0
1287 29 -1288 0
-12 -14 -1289 0
-12 14 1289 0
12 -14 1289 0
12 14 -1289 0
-1289 -15 -1290 0
-1289 15 1290 0
1289 -15 1290 0
1289 15 -1290 0
-1290 -16 -1291 0
-1290 16 1291 0
1290 -16 1291 0
1290 16 -1291 0
-1291 -18 -1292 0
-1291 18 1292 0
1291 -18 1292 0
1291 18 -1292 0
-1292 -19 -1293 0
-1292 19 1293 0
1292 -19 1293 0
1292 19 -1293 0
-1293 -32 -1294 0
-1293 32 1294 0
1293 -32 1294 0
1293 32 -1294 0
-1294 -34 -1295 0
-1294 34 1295 0
1294 -34 1295 0
1294 34 -1295 0
-1295 -35 -1296 0
-1295 35 1296 0
1295 -35 1296 0
1295 35 -1296 0
-1296 -36 -1297 0
-1296 36 1297 0
1296 -36 1297 0
1296 36 -1297 0
-1297 -38 -1298 0
-1297 38 1298 0
1297 -38 1298 0
1297 38 -1298 0
-1298 -39 -1299 0
-1298 39 1299 0
1298 -39 1299 0
1298 39 -1299 0
1288 1299 0
-1 -2 -1300 0
-1 2 1300 0
1 -2 1300 0
1 2 -1300 0
-1300 -4 -1301 0
-1300 4 1301 0
1300 -4 1301 0
1300 4 -1301 0
-1301 -5 -1302 0
-1301 5 1302 0
1301 -5 1302 0
1301 5 -1302 0
-1302 -6 -1303 0
-1302 6 1303 0
1302 -6 1303 0
1302 6 -1303 0
-1303 -8 -1304 0
-1303 8 1304 0
1303 -8 1304 0
1303 8 -1304 0
-1304 -9 -1305 0
-1304 9 1305 0
1304 -9 1305 0
1304 9 -1305 0
-1305 -11 -1306 0
-1305 11 1306 0
1305 -11 1306 0
1305 11 -1306 0
-1306 -12 -1307 0
-1306 12 1307 0
1306 -12 1307 0
1306 12 -1307 0
-1307 -14 -1308 0
-1307 14 1308 0
1307 -14 1308 0
1307 14 -1308 0
-1308 -15 -1309 0
-1308 15 1309 0
1308 -15 1309 0
1308 15 -1309 0
-1309 -16 -1310 0
-1309 16 1310 0
1309 -16 1310 0
1309 16 -1310 0
-1310 -18 -1311 0
-1310 18 1311 0
1310 -18 1311 0
1310 18 -1311 0
-1311 -19 -1312 0
-1311 19 1312 0
1311 -19 1312 0
1311 19 -1312 0
-1312 -21 -1313 0
-1312 21 1313 0
1312 -21 1313 0
1312 21 -1313 0
-1313 -22 -1314 0
-1313 22 1314 0
1313 -22 1314 0
1313 22 -1314 0
-1314 -24 -1315 0
-1314 24 1315 0
1314 -24 1315 0
1314 24 -1315 0
-1315 -25 -1316 0
-1315 25 1316 0
1315 -25 1316 0
1315 25 -1316 0
-1316 -26 -1317 0
-1316 26 1317 0
1316 -26 1317 0
1316 26 -1317 0
-1317 -28 -1318 0
-1317 28 1318 0
1317 -28 1318 0
1317 28 -1318 0
-1318 -29 -1319 0
-1318 29 1319 0
1318 -29 1319 0
1318 29 -1319 0
-1 -2 -1320 0
-1 2 1320 0
1 -2 1320 0
1 2 -1320 0
-1320 -4 -1321 0
-1320 4 1321 0
1320 -4 1321 0
1320 4 -1321 0
-1321 -5 -1322 0
-1321 5 1322 0
1321 -5 1322 0
1321 5 -1322 0
-1322 -6 -1323 0
-1322 6 1323 0
1322 -6 1323 0
1322 6 -1323 0
-1323 -8 -1324 0
-1323 8 1324 0
1323 -8 1324 0
1323 8 -1324 0
-1324 -9 -1325 0
-1324 9 1325 0
1324 -9 1325 0
1324 9 -1325 0
-1325 -31 -1326 0
-1325 31 1326 0
1325 -31 1326 0
1325 31 -1326 0
-1326 -32 -1327 0
-1326 32 1327 0
1326 -32 1327 0
1326 32 -1327 0
-1327 -34 -1328 0
-1327 34 1328 0
1327 -34 1328 0
1327 34 -1328 0
-1328 -35 -1329 0
-1328 35 1329 0
1328 -35 1329 0
1328 35 -1329 0
-1329 -36 -1330 0
-1329 36 1330 0
1329 -36 1330 0
1329 36 -1330 0
-1330 -38 -1331 0
-1330 38 1331 0
1330 -38 1331 0
1330 38 -1331 0
-1331 -39 -1332 0
-1331 39 1332 0
1331 -39 1332 0
1331 39 -1332 0
1319 1332 0
-12 -13 -1333 0
-12 13 1333 0
12 -13 1333 0
12 13 -1333 0
-1333 -17 -1334 0
-1333 17 1334 0
1333 -17 1334 0
1333 17 -1334 0
-1334 -18 -1335 0
-1334 18 1335 0
1334 -18 1335 0
1334 18 -1335 0
-1335 -19 -1336 0
-1335 19 1336 0
1335 -19 1336 0
1335 19 -1336 0
-1336 -22 -1337 0
-1336 22 1337 0
1336 -22 1337 0
1336 22 -1337 0
-1337 -23 -1338 0
-1337 23 1338 0
1337 -23 1338 0
1337 23 -1338 0
-1338 -27 -1339 0
-1338 27 1339 0
1338 -27 1339 0
1338 27 -1339 0
-1339 -28 -1340 0
-1339 28 1340 0
1339 -28 1340 0
1339 28 -1340 0
-1340 -29 -1341 0
-1340 29 1341 0
1340 -29 1341 0
1340 29 -1341 0
-2 -3 -1342 0
-2 3 1342 0
2 -3 1342 0
2 3 -1342 0
-1342 -7 -1343 0
-1342 7 1343 0
1342 -7 1343 0
1342 7 -1343 0
-1343 -8 -1344 0
-1343 8 1344 0
1343 -8 1344 0
1343 8 -1344 0
-1344 -9 -1345 0
-1344 9 1345 0
1344 -9 1345 0
1344 9 -1345 0
-1345 -32 -1346 0
-1345 32 1346 0
1345 -32 1346 0
1345 32 -1346 0
-1346 -33 -1347 0
-1346 33 1347 0
1346 -33 1347 0
1346 33 -1347 0
-1347 -37 -1348 0
-1347 37 1348 0
1347 -37 1348 0
1347 37 -1348 0
-1348 -38 -1349 0
-1348 38 1349 0
1348 -38 1349 0
1348 38 -1349 0
-1349 -39 -1350 0
-1349 39 1350 0
1349 -39 1350 0
1349 39 -1350 0
1341 1350 0
-1 -4 -1351 0
-1 4 1351 0
1 -4 1351 0
1 4 -1351 0
-1351 -6 -1352 0
-1351 6 1352 0
1351 -6 1352 0
1351 6 -1352 0
-1352 -7 -1353 0
-1352 7 1353 0
1352 -7 1353 0
1352 7 -1353 0
-1353 -8 -1354 0
-1353 8 1354 0
1353 -8 1354 0
1353 8 -1354 0
-1354 -9 -1355 0
-1354 9 1355 0
1354 -9 1355 0
1354 9 -1355 0
-1355 -21 -1356 0
-1355 21 1356 0
1355 -21 1356 0
1355 21 -1356 0
-1356 -24 -1357 0
-1356 24 1357 0
1356 -24 1357 0
1356 24 -1357 0
-1357 -26 -1358 0
-1357 26 1358 0
1357 -26 1358 0
1357 26 -1358 0
-1358 -27 -1359 0
-1358 27 1359 0
1358 -27 1359 0
1358 27 -1359 0
-1359 -28 -1360 0
-1359 28 1360 0
1359 -28 1360 0
1359 28 -1360 0
-1360 -29 -1361 0
-1360 29 1361 0
1360 -29 1361 0
1360 29 -1361 0
-11 -14 -1362 0
-11 14 1362 0
11 -14 1362 0
11 14 -1362 0
-1362 -16 -1363 0
-1362 16 1363 0
1362 -16 1363 0
1362 16 -1363 0
-1363 -17 -1364 0
-1363 17 1364 0
1363 -17 1364 0
1363 17 -1364 0
-1364 -18 -1365 0
-1364 18 1365 0
1364 -18 1365 0
1364 18 -1365 0
-1365 -19 -1366 0
-1365 19 1366 0
1365 -19 1366 0
1365 19 -1366 0
-1366 -31 -1367 0
-1366 31 1367 0
1366 -31 1367 0
1366 31 -1367 0
-1367 -34 -1368 0
-1367 34 1368 0
1367 -34 1368 0
1367 34 -1368 0
-1368 -36 -1369 0
-1368 36 1369 0
1368 -36 1369 0
1368 36 -1369 0
-1369 -37 -1370 0
-1369 37 1370 0
1369 -37 1370 0
1369 37 -1370 0
-1370 -38 -1371 0
-1370 38 1371 0
1370 -38 1371 0
1370 38 -1371 0
-1371 -39 -1372 0
-1371 39 1372 0
1371 -39 1372 0
1371 39 -1372 0
1361 1372 0
-1 -5 -1373 0
-1 5 1373 0
1 -5 1373 0
1 5 -1373 0
-1373 -6 -1374 0
-1373 6 1374 0
1373 -6 1374 0
1373 6 -1374 0
-1374 -7 -1375 0
-1374 7 1375 0
1374 -7 1375 0
1374 7 -1375 0
-1375 -8 -1376 0
-1375 8 1376 0
1375 -8 1376 0
1375 8 -1376 0
-1376 -9 -1377 0
-1376 9 1377 0
1376 -9 1377 0
1376 9 -1377 0
-1377 -21 -1378 0
-1377 21 1378 0
1377 -21 1378 0
1377 21 -1378 0
-1378 -25 -1379 0
-1378 25 1379 0
1378 -25 1379 0
1378 25 -1379 0
-1379 -26 -1380 0
-1379 26 1380 0
1379 -26 1380 0
1379 26 -1380 0
-1380 -27 -1381 0
-1380 27 1381 0
1380 -27 1381 0
1380 27 -1381 0
-1381 -28 -1382 0
-1381 28 1382 0
1381 -28 1382 0
1381 28 -1382 0
-1382 -29 -1383 0
-1382 29 1383 0
1382 -29 1383 0
1382 29 -1383 0
-1 -5 -1384 0
-1 5 1384 0
1 -5 1384 0
1 5 -1384 0
-1384 -6 -1385 0
-1384 6 1385 0
1384 -6 1385 0
1384 6 -1385 0
-1385 -7 -1386 0
-1385 7 1386 0
1385 -7 1386 0
1385 7 -1386 0
-1386 -8 -1387 0
-1386 8 1387 0
1386 -8 1387 0
1386 8 -1387 0
-1387 -9 -1388 0
-1387 9 1388 0
1387 -9 1388 0
1387 9 -1388 0
-1388 -11 -1389 0
-1388 11 1389 0
1388 -11 1389 0
1388 11 -1389 0
-1389 -15 -1390 0
-1389 15 1390 0
1389 -15 1390 0
1389 15 -1390 0
-1390 -16 -1391 0
-1390 16 1391 0
1390 -16 1391 0
1390 16 -1391 0
-1391 -17 -1392 0
-1391 17 1392 0
1391 -17 1392 0
1391 17 -1392 0
-1392 -18 -1393 0
-1392 18 1393 0
1392 -18 1393 0
1392 18 -1393 0
-1393 -19 -1394 0
-1393 19 1394 0
1393 -19 1394 0
1393 19 -1394 0
-1394 -31 -1395 0
-1394 31 1395 0
1394 -31 1395 0
1394 31 -1395 0
-1395 -35 -1396 0
-1395 35 1396 0
1395 -35 1396 0
1395 35 -1396 0
-1396 -36 -1397 0
-1396 36 1397 0
1396 -36 1397 0
1396 36 -1397 0
-1397 -37 -1398 0
-1397 37 1398 0
1397 -37 1398 0
1397 37 -1398 0
-1398 -38 -1399 0
-1398 38 1399 0
1398 -38 1399 0
1398 38 -1399 0
-1399 -39 -1400 0
-1399 39 1400 0
1399 -39 1400 0
1399 39 -1400 0
1383 1400 0
-3 -10 -1401 0
-3 10 1401 0
3 -10 1401 0
3 10 -1401 0
-1401 -23 -1402 0
-1401 23 1402 0
1401 -23 1402 0
1401 23 -1402 0
-1402 -30 -1403 0
-1402 30 1403 0
1402 -30 1403 0
1402 30 -1403 0
-33 -40 -1404 0
-33 40 1404 0
33 -40 1404 0
33 40 -1404 0
1403 1404 0
-21 -24 -1405 0
-21 24 1405 0
21 -24 1405 0
21 24 -1405 0
-1405 -30 -1406 0
-1405 30 1406 0
1405 -30 1406 0
1405 30 -1406 0
-1 -4 -1407 0
-1 4 1407 0
1 -4 1407 0
1 4 -1407 0
-1407 -10 -1408 0
-1407 10 1408 0
1407 -10 1408 0
1407 10 -1408 0
-1408 -11 -1409 0
-1408 11 1409 0
1408 -11 1409 0
1408 11 -1409 0
-1409 -14 -1410 0
-1409 14 1410 0
1409 -14 1410 0
1409 14 -1410 0
-1410 -20 -1411 0
-1410 20 1411 0
1410 -20 1411 0
1410 20 -1411 0
-1411 -31 -1412 0
-1411 31 1412 0
1411 -31 1412 0
1411 31 -1412 0
-1412 -34 -1413 0
-1412 34 1413 0
1412 -34 1413 0
1412 34 -1413 0
-1413 -40 -1414 0
-1413 40 1414 0
1413 -40 1414 0
1413 40 -1414 0
1406 1414 0
-21 -22 -1415 0
-21 22 1415 0
21 -22 1415 0
21 22 -1415 0
-1415 -24 -1416 0
-1415 24 1416 0
1415 -24 1416 0
1415 24 -1416 0
-1416 -30 -1417 0
-1416 30 1417 0
1416 -30 1417 0
1416 30 -1417 0
-1 -2 -1418 0
-1 2 1418 0
1 -2 1418 0
1 2 -1418 0
-1418 -4 -1419 0
-1418 4 1419 0
1418 -4 1419 0
1418 4 -1419 0
-1419 -10 -1420 0
-1419 10 1420 0
1419 -10 1420 0
1419 10 -1420 0
-1420 -11 -1421 0
-1420 11 1421 0
1420 -11 1421 0
1420 11 -1421 0
-1421 -12 -1422 0
-1421 12 1422 0
1421 -12 1422 0
1421 12 -1422 0
-1422 -14 -1423 0
-1422 14 1423 0
1422 -14 1423 0
1422 14 -1423 0
-1423 -20 -1424 0
-1423 20 1424 0
1423 -20 1424 0
1423 20 -1424 0
-1424 -31 -1425 0
-1424 31 1425 0
1424 -31 1425 0
1424 31 -1425 0
-1425 -32 -1426 0
-1425 32 1426 0
1425 -32 1426 0
1425 32 -1426 0
-1426 -34 -1427 0
-1426 34 1427 0
1426 -34 1427 0
1426 34 -1427 0
-1427 -40 -1428 0
-1427 40 1428 0
1427 -40 1428 0
1427 40 -1428 0
1417 1428 0
-2 -3 -1429 0
-2 3 1429 0
2 -3 1429 0
2 3 -1429 0
-1429 -4 -1430 0
-1429 4 1430 0
1429 -4 1430 0
1429 4 -1430 0
-1430 -10 -1431 0
-1430 10 1431 0
1430 -10 1431 0
1430 10 -1431 0
-1431 -22 -1432 0
-1431 22 1432 0
1431 -22 1432 0
1431 22 -1432 0
-1432 -23 -1433 0
-1432 23 1433 0
1432 -23 1433 0
1432 23 -1433 0
-1433 -24 -1434 0
-1433 24 1434 0
1433 -24 1434 0
1433 24 -1434 0
-1434 -30 -1435 0
-1434 30 1435 0
1434 -30 1435 0
1434 30 -1435 0
-32 -33 -1436 0
-32 33 1436 0
32 -33 1436 0
32 33 -1436 0
-1436 -34 -1437 0
-1436 34 1437 0
1436 -34 1437 0
1436 34 -1437 0
-1437 -40 -1438 0
-1437 40 1438 0
1437 -40 1438 0
1437 40 -1438 0
1435 1438 0
-11 -12 -1439 0
-11 12 1439 0
11 -12 1439 0
11 12 -1439 0
-1439 -16 -1440 0
-1439 16 1440 0
1439 -16 1440 0
1439 16 -1440 0
-1440 -20 -1441 0
-1440 20 1441 0
1440 -20 1441 0
1440 20 -1441 0
-1441 -21 -1442 0
-1441 21 1442 0
1441 -21 1442 0
1441 21 -1442 0
-1442 -22 -1443 0
-1442 22 1443 0
1442 -22 1443 0
1442 22 -1443 0
-1443 -26 -1444 0
-1443 26 1444 0
1443 -26 1444 0
1443 26 -1444 0
-1444 -30 -1445 0
-1444 30 1445 0
1444 -30 1445 0
1444 30 -1445 0
-31 -32 -1446 0
-31 32 1446 0
31 -32 1446 0
31 32 -1446 0
-1446 -36 -1447 0
-1446 36 1447 0
1446 -36 1447 0
1446 36 -1447 0
-1447 -40 -1448 0
-1447 40 1448 0
1447 -40 1448 0
1447 40 -1448 0
1445 1448 0
-2 -4 -1449 0
-2 4 1449 0
2 -4 1449 0
2 4 -1449 0
-1449 -6 -1450 0
-1449 6 1450 0
1449 -6 1450 0
1449 6 -1450 0
-1450 -10 -1451 0
-1450 10 1451 0
1450 -10 1451 0
1450 10 -1451 0
-1451 -22 -1452 0
-1451 22 1452 0
1451 -22 1452 0
1451 22 -1452 0
-1452 -24 -1453 0
-1452 24 1453 0
1452 -24 1453 0
1452 24 -1453 0
-1453 -26 -1454 0
-1453 26 1454 0
1453 -26 1454 0
1453 26 -1454 0
-1454 -30 -1455 0
-1454 30 1455 0
1454 -30 1455 0
1454 30 -1455 0
-2 -4 -1456 0
-2 4 1456 0
2 -4 1456 0
2 4 -1456 0
-1456 -6 -1457 0
-1456 6 1457 0
1456 -6 1457 0
1456 6 -1457 0
-1457 -10 -1458 0
-1457 10 1458 0
1457 -10 1458 0
1457 10 -1458 0
-1458 -12 -1459 0
-1458 12 1459 0
1458 -12 1459 0
1458 12 -1459 0
-1459 -14 -1460 0
-1459 14 1460 0
1459 -14 1460 0
1459 14 -1460 0
-1460 -16 -1461 0
-1460 16 1461 0
1460 -16 1461 0
1460 16 -1461 0
-1461 -20 -1462 0
-1461 20 1462 0
1461 -20 1462 0
1461 20 -1462 0
-1462 -32 -1463 0
-1462 32 1463 0
1462 -32 1463 0
1462 32 -1463 0
-1463 -34 -1464 0
-1463 34 1464 0
1463 -34 1464 0
1463 34 -1464 0
-1464 -36 -1465 0
-1464 36 1465 0
1464 -36 1465 0
1464 36 -1465 0
-1465 -40 -1466 0
-1465 40 1466 0
1465 -40 1466 0
1465 40 -1466 0
1455 1466 0
-11 -12 -1467 0
-11 12 1467 0
11 -12 1467 0
11 12 -1467 0
-1467 -15 -1468 0
-1467 15 1468 0
1467 -15 1468 0
1467 15 -1468 0
-1468 -16 -1469 0
-1468 16 1469 0
1468 -16 1469 0
1468 16 -1469 0
-1469 -20 -1470 0
-1469 20 1470 0
1469 -20 1470 0
1469 20 -1470 0
-1470 -21 -1471 0
-1470 21 1471 0
1470 -21 1471 0
1470 21 -1471 0
-1471 -22 -1472 0
-1471 22 1472 0
1471 -22 1472 0
1471 22 -1472 0
-1472 -25 -1473 0
-1472 25 1473 0
1472 -25 1473 0
1472 25 -1473 0
-1473 -26 -1474 0
-1473 26 1474 0
1473 -26 1474 0
1473 26 -1474 0
-1474 -30 -1475 0
-1474 30 1475 0
1474 -30 1475 0
1474 30 -1475 0
-1 -2 -1476 0
-1 2 1476 0
1 -2 1476 0
1 2 -1476 0
-1476 -5 -1477 0
-1476 5 1477 0
1476 -5 1477 0
1476 5 -1477 0
-1477 -6 -1478 0
-1477 6 1478 0
1477 -6 1478 0
1477 6 -1478 0
-1478 -10 -1479 0
-1478 10 1479 0
1478 -10 1479 0
1478 10 -1479 0
-1479 -11 -1480 0
-1479 11 1480 0
1479 -11 1480 0
1479 11 -1480 0
-1480 -12 -1481 0
-1480 12 1481 0
1480 -12 1481 0
1480 12 -1481 0
-1481 -15 -1482 0
-1481 15 1482 0
1481 -15 1482 0
1481 15 -1482 0
-1482 -16 -1483 0
-1482 16 1483 0
1482 -16 1483 0
1482 16 -1483 0
-1483 -20 -1484 0
-1483 20 1484 0
1483 -20 1484 0
1483 20 -1484 0
-1484 -31 -1485 0
-1484 31 1485 0
1484 -31 1485 0
1484 31 -1485 0
-1485 -32 -1486 0
-1485 32 1486 0
1485 -32 1486 0
1485 32 -1486 0
-1486 -35 -1487 0
-1486 35 1487 0
1486 -35 1487 0
1486 35 -1487 0
-1487 -36 -1488 0
-1487 36 1488 0
1487 -36 1488 0
1487 36 -1488 0
-1488 -40 -1489 0
-1488 40 1489 0
1488 -40 1489 0
1488 40 -1489 0
1475 1489 0
-11 -12 -1490 0
-11 12 1490 0
11 -12 1490 0
11 12 -1490 0
-1490 -13 -1491 0
-1490 13 1491 0
1490 -13 1491 0
1490 13 -1491 0
-1491 -17 -1492 0
-1491 17 1492 0
1491 -17 1492 0
1491 17 -1492 0
-1492 -20 -1493 0
-1492 20 1493 0
1492 -20 1493 0
1492 20 -1493 0
-1493 -21 -1494 0
-1493 21 1494 0
1493 -21 1494 0
1493 21 -1494 0
-1494 -22 -1495 0
-1494 22 1495 0
1494 -22 1495 0
1494 22 -1495 0
-1495 -23 -1496 0
-1495 23 1496 0
1495 -23 1496 0
1495 23 -1496 0
-1496 -27 -1497 0
-1496 27 1497 0
1496 -27 1497 0
1496 27 -1497 0
-1497 -30 -1498 0
-1497 30 1498 0
1497 -30 1498 0
1497 30 -1498 0
-11 -12 -1499 0
-11 12 1499 0
11 -12 1499 0
11 12 -1499 0
-1499 -13 -1500 0
-1499 13 1500 0
1499 -13 1500 0
1499 13 -1500 0
-1500 -17 -1501 0
-1500 17 1501 0
1500 -17 1501 0
1500 17 -1501 0
-1501 -20 -1502 0
-1501 20 1502 0
1501 -20 1502 0
1501 20 -1502 0
-1502 -31 -1503 0
-1502 31 1503 0
1502 -31 1503 0
1502 31 -1503 0
-1503 -32 -1504 0
-1503 32 1504 0
1503 -32 1504 0
1503 32 -1504 0
-1504 -33 -1505 0
-1504 33 1505 0
1504 -33 1505 0
1504 33 -1505 0
-1505 -37 -1506 0
-1505 37 1506 0
1505 -37 1506 0
1505 37 -1506 0
-1506 -40 -1507 0
-1506 40 1507 0
1506 -40 1507 0
1506 40 -1507 0
1498 1507 0
-2 -5 -1508 0
-2 5 1508 0
2 -5 1508 0
2 5 -1508 0
-1508 -7 -1509 0
-1508 7 1509 0
1508 -7 1509 0
1508 7 -1509 0
-1509 -10 -1510 0
-1509 10 1510 0
1509 -10 1510 0
1509 10 -1510 0
-1510 -12 -1511 0
-1510 12 1511 0
1510 -12 1511 0
1510 12 -1511 0
-1511 -15 -1512 0
-1511 15 1512 0
1511 -15 1512 0
1511 15 -1512 0
-1512 -17 -1513 0
-1512 17 1513 0
1512 -17 1513 0
1512 17 -1513 0
-1513 -20 -1514 0
-1513 20 1514 0
1513 -20 1514 0
1513 20 -1514 0
-1514 -22 -1515 0
-1514 22 1515 0
1514 -22 1515 0
1514 22 -1515 0
-1515 -25 -1516 0
-1515 25 1516 0
1515 -25 1516 0
1515 25 -1516 0
-1516 -27 -1517 0
-1516 27 1517 0
1516 -27 1517 0
1516 27 -1517 0
-1517 -30 -1518 0
-1517 30 1518 0
1517 -30 1518 0
1517 30 -1518 0
-2 -5 -1519 0
-2 5 1519 0
2 -5 1519 0
2 5 -1519 0
-1519 -7 -1520 0
-1519 7 1520 0
1519 -7 1520 0
1519 7 -1520 0
-1520 -10 -1521 0
-1520 10 1521 0
1520 -10 1521 0
1520 10 -1521 0
-1521 -12 -1522 0
-1521 12 1522 0
1521 -12 1522 0
1521 12 -1522 0
-1522 -15 -1523 0
-1522 15 1523 0
1522 -15 1523 0
1522 15 -1523 0
-1523 -17 -1524 0
-1523 17 1524 0
1523 -17 1524 0
1523 17 -1524 0
-1524 -20 -1525 0
-1524 20 1525 0
1524 -20 1525 0
1524 20 -1525 0
-1525 -32 -1526 0
-1525 32 1526 0
1525 -32 1526 0
1525 32 -1526 0
-1526 -35 -1527 0
-1526 35 1527 0
1526 -35 1527 0
1526 35 -1527 0
-1527 -37 -1528 0
-1527 37 1528 0
1527 -37 1528 0
1527 37 -1528 0
-1528 -40 -1529 0
-1528 40 1529 0
1528 -40 1529 0
1528 40 -1529 0
1518 1529 0
-1 -2 -1530 0
-1 2 1530 0
1 -2 1530 0
1 2 -1530 0
-1530 -3 -1531 0
-1530 3 1531 0
1530 -3 1531 0
1530 3 -1531 0
-1531 -5 -1532 0
-1531 5 1532 0
1531 -5 1532 0
1531 5 -1532 0
-1532 -6 -1533 0
-1532 6 1533 0
1532 -6 1533 0
1532 6 -1533 0
-1533 -7 -1534 0
-1533 7 1534 0
1533 -7 1534 0
1533 7 -1534 0
-1534 -10 -1535 0
-1534 10 1535 0
1534 -10 1535 0
1534 10 -1535 0
-1535 -11 -1536 0
-1535 11 1536 0
1535 -11 1536 0
1535 11 -1536 0
-1536 -12 -1537 0
-1536 12 1537 0
1536 -12 1537 0
1536 12 -1537 0
-1537 -13 -1538 0
-1537 13 1538 0
1537 -13 1538 0
1537 13 -1538 0
-1538 -15 -1539 0
-1538 15 1539 0
1538 -15 1539 0
1538 15 -1539 0
-1539 -16 -1540 0
-1539 16 1540 0
1539 -16 1540 0
1539 16 -1540 0
-1540 -17 -1541 0
-1540 17 1541 0
1540 -17 1541 0
1540 17 -1541 0
-1541 -20 -1542 0
-1541 20 1542 0
1541 -20 1542 0
1541 20 -1542 0
-1542 -21 -1543 0
-1542 21 1543 0
1542 -21 1543 0
1542 21 -1543 0
-1543 -22 -1544 0
-1543 22 1544 0
1543 -22 1544 0
1543 22 -1544 0
-1544 -23 -1545 0
-1544 23 1545 0
1544 -23 1545 0
1544 23 -1545 0
-1545 -25 -1546 0
-1545 25 1546 0
1545 -25 1546 0
1545 25 -1546 0
-1546 -26 -1547 0
-1546 26 1547 0
1546 -26 1547 0
1546 26 -1547 0
-1547 -27 -1548 0
-1547 27 1548 0
1547 -27 1548 0
1547 27 -1548 0
-1548 -30 -1549 0
-1548 30 1549 0
1548 -30 1549 0
1548 30 -1549 0
-1 -2 -1550 0
-1 2 1550 0
1 -2 1550 0
1 2 -1550 0
-1550 -3 -1551 0
-1550 3 1551 0
1550 -3 1551 0
1550 3 -1551 0
-1551 -5 -1552 0
-1551 5 1552 0
1551 -5 1552 0
1551 5 -1552 0
-1552 -6 -1553 0
-1552 6 1553 0
1552 -6 1553 0
1552 6 -1553 0
-1553 -7 -1554 0
-1553 7 1554 0
1553 -7 1554 0
1553 7 -1554 0
-1554 -10 -1555 0
-1554 10 1555 0
1554 -10 1555 0
1554 10 -1555 0
-1555 -31 -1556 0
-1555 31 1556 0
1555 -31 1556 0
1555 31 -1556 0
-1556 -32 -1557 0
-1556 32 1557 0
1556 -32 1557 0
1556 32 -1557 0
-1557 -33 -1558 0
-1557 33 1558 0
1557 -33 1558 0
1557 33 -1558 0
-1558 -35 -1559 0
-1558 35 1559 0
1558 -35 1559 0
1558 35 -1559 0
-1559 -36 -1560 0
-1559 36 1560 0
1559 -36 1560 0
1559 36 -1560 0
-1560 -37 -1561 0
-1560 37 1561 0
1560 -37 1561 0
1560 37 -1561 0
-1561 -40 -1562 0
-1561 40 1562 0
1561 -40 1562 0
1561 40 -1562 0
1549 1562 0
-21 -23 -1563 0
-21 23 1563 0
21 -23 1563 0
21 23 -1563 0
-1563 -26 -1564 0
-1563 26 1564 0
1563 -26 1564 0
1563 26 -1564 0
-1564 -28 -1565 0
-1564 28 1565 0
1564 -28 1565 0
1564 28 -1565 0
-1565 -30 -1566 0
-1565 30 1566 0
1565 -30 1566 0
1565 30 -1566 0
-31 -33 -1567 0
-31 33 1567 0
31 -33 1567 0
31 33 -1567 0
-1567 -36 -1568 0
-1567 36 1568 0
1567 -36 1568 0
1567 36 -1568 0
-1568 -38 -1569 0
-1568 38 1569 0
1568 -38 1569 0
1568 38 -1569 0
-1569 -40 -1570 0
-1569 40 1570 0
1569 -40 1570 0
1569 40 -1570 0
1566 1570 0
-11 -12 -1571 0
-11 12 1571 0
11 -12 1571 0
11 12 -1571 0
-1571 -13 -1572 0
-1571 13 1572 0
1571 -13 1572 0
1571 13 -1572 0
-1572 -14 -1573 0
-1572 14 1573 0
1572 -14 1573 0
1572 14 -1573 0
-1573 -16 -1574 0
-1573 16 1574 0
1573 -16 1574 0
1573 16 -1574 0
-1574 -18 -1575 0
-1574 18 1575 0
1574 -18 1575 0
1574 18 -1575 0
-1575 -20 -1576 0
-1575 20 1576 0
1575 -20 1576 0
1575 20 -1576 0
-1576 -21 -1577 0
-1576 21 1577 0
1576 -21 1577 0
1576 21 -1577 0
-1577 -22 -1578 0
-1577 22 1578 0
1577 -22 1578 0
1577 22 -1578 0
-1578 -23 -1579 0
-1578 23 1579 0
1578 -23 1579 0
1578 23 -1579 0
-1579 -24 -1580 0
-1579 24 1580 0
1579 -24 1580 0
1579 24 -1580 0
-1580 -26 -1581 0
-1580 26 1581 0
1580 -26 1581 0
1580 26 -1581 0
-1581 -28 -1582 0
-1581 28 1582 0
1581 -28 1582 0
1581 28 -1582 0
-1582 -30 -1583 0
-1582 30 1583 0
1582 -30 1583 0
1582 30 -1583 0
-31 -32 -1584 0
-31 32 1584 0
31 -32 1584 0
31 32 -1584 0
-1584 -33 -1585 0
-1584 33 1585 0
1584 -33 1585 0
1584 33 -1585 0
-1585 -34 -1586 0
-1585 34 1586 0
1585 -34 1586 0
1585 34 -1586 0
-1586 -36 -1587 0
-1586 36 1587 0
1586 -36 1587 0
1586 36 -1587 0
-1587 -38 -1588 0
-1587 38 1588 0
1587 -38 1588 0
1587 38 -1588 0
-1588 -40 -1589 0
-1588 40 1589 0
1588 -40 1589 0
1588 40 -1589 0
1583 1589 0
-21 -24 -1590 0
-21 24 1590 0
21 -24 1590 0
21 24 -1590 0
-1590 -25 -1591 0
-1590 25 1591 0
1590 -25 1591 0
1590 25 -1591 0
-1591 -26 -1592 0
-1591 26 1592 0
1591 -26 1592 0
1591 26 -1592 0
-1592 -28 -1593 0
-1592 28 1593 0
1592 -28 1593 0
1592 28 -1593 0
-1593 -30 -1594 0
-1593 30 1594 0
1593 -30 1594 0
1593 30 -1594 0
-31 -34 -1595 0
-31 34 1595 0
31 -34 1595 0
31 34 -1595 0
-1595 -35 -1596 0
-1595 35 1596 0
1595 -35 1596 0
1595 35 -1596 0
-1596 -36 -1597 0
-1596 36 1597 0
1596 -36 1597 0
1596 36 -1597 0
-1597 -38 -1598 0
-1597 38 1598 0
1597 -38 1598 0
1597 38 -1598 0
-1598 -40 -1599 0
-1598 40 1599 0
1598 -40 1599 0
1598 40 -1599 0
1594 1599 0
-21 -22 -1600 0
-21 22 1600 0
21 -22 1600 0
21 22 -1600 0
-1600 -25 -1601 0
-1600 25 1601 0
1600 -25 1601 0
1600 25 -1601 0
-1601 -26 -1602 0
-1601 26 1602 0
1601 -26 1602 0
1601 26 -1602 0
-1602 -27 -1603 0
-1602 27 1603 0
1602 -27 1603 0
1602 27 -1603 0
-1603 -28 -1604 0
-1603 28 1604 0
1603 -28 1604 0
1603 28 -1604 0
-1604 -30 -1605 0
-1604 30 1605 0
1604 -30 1605 0
1604 30 -1605 0
-1 -2 -1606 0
-1 2 1606 0
1 -2 1606 0
1 2 -1606 0
-1606 -5 -1607 0
-1606 5 1607 0
1606 -5 1607 0
1606 5 -1607 0
-1607 -6 -1608 0
-1607 6 1608 0
1607 -6 1608 0
1607 6 -1608 0
-1608 -7 -1609 0
-1608 7 1609 0
1608 -7 1609 0
1608 7 -1609 0
-1609 -8 -1610 0
-1609 8 1610 0
1609 -8 1610 0
1609 8 -1610 0
-1610 -10 -1611 0
-1610 10 1611 0
1610 -10 1611 0
1610 10 -1611 0
-1611 -31 -1612 0
-1611 31 1612 0
1611 -31 1612 0
1611 31 -1612 0
-1612 -32 -1613 0
-1612 32 1613 0
1612 -32 1613 0
1612 32 -1613 0
-1613 -35 -1614 0
-1613 35 1614 0
1613 -35 1614 0
1613 35 -1614 0
-1614 -36 -1615 0
-1614 36 1615 0
1614 -36 1615 0
1614 36 -1615 0
-1615 -37 -1616 0
-1615 37 1616 0
1615 -37 1616 0
1615 37 -1616 0
-1616 -38 -1617 0
-1616 38 1617 0
1616 -38 1617 0
1616 38 -1617 0
-1617 -40 -1618 0
-1617 40 1618 0
1617 -40 1618 0
1617 40 -1618 0
1605 1618 0
-1 -4 -1619 0
-1 4 1619 0
1 -4 1619 0
1 4 -1619 0
-1619 -5 -1620 0
-1619 5 1620 0
1619 -5 1620 0
1619 5 -1620 0
-1620 -6 -1621 0
-1620 6 1621 0
1620 -6 1621 0
1620 6 -1621 0
-1621 -7 -1622 0
-1621 7 1622 0
1621 -7 1622 0
1621 7 -1622 0
-1622 -8 -1623 0
-1622 8 1623 0
1622 -8 1623 0
1622 8 -1623 0
-1623 -10 -1624 0
-1623 10 1624 0
1623 -10 1624 0
1623 10 -1624 0
-1624 -11 -1625 0
-1624 11 1625 0
1624 -11 1625 0
1624 11 -1625 0
-1625 -14 -1626 0
-1625 14 1626 0
1625 -14 1626 0
1625 14 -1626 0
-1626 -15 -1627 0
-1626 15 1627 0
1626 -15 1627 0
1626 15 -1627 0
-1627 -16 -1628 0
-1627 16 1628 0
1627 -16 1628 0
1627 16 -1628 0
-1628 -17 -1629 0
-1628 17 1629 0
1628 -17 1629 0
1628 17 -1629 0
-1629 -18 -1630 0
-1629 18 1630 0
1629 -18 1630 0
1629 18 -1630 0
-1630 -20 -1631 0
-1630 20 1631 0
1630 -20 1631 0
1630 20 -1631 0
-1631 -21 -1632 0
-1631 21 1632 0
1631 -21 1632 0
1631 21 -1632 0
-1632 -24 -1633 0
-1632 24 1633 0
1632 -24 1633 0
1632 24 -1633 0
-1633 -25 -1634 0
-1633 25 1634 0
1633 -25 1634 0
1633 25 -1634 0
-1634 -26 -1635 0
-1634 26 1635 0
1634 -26 1635 0
1634 26 -1635 0
-1635 -27 -1636 0
-1635 27 1636 0
1635 -27 1636 0
1635 27 -1636 0
-1636 -28 -1637 0
-1636 28 1637 0
1636 -28 1637 0
1636 28 -1637 0
-1637 -30 -1638 0
-1637 30 1638 0
1637 -30 1638 0
1637 30 -1638 0
-11 -14 -1639 0
-11 14 1639 0
11 -14 1639 0
11 14 -1639 0
-1639 -15 -1640 0
-1639 15 1640 0
1639 -15 1640 0
1639 15 -1640 0
-1640 -16 -1641 0
-1640 16 1641 0
1640 -16 1641 0
1640 16 -1641 0
-1641 -17 -1642 0
-1641 17 1642 0
1641 -17 1642 0
1641 17 -1642 0
-1642 -18 -1643 0
-1642 18 1643 0
1642 -18 1643 0
1642 18 -1643 0
-1643 -20 -1644 0
-1643 20 1644 0
1643 -20 1644 0
1643 20 -1644 0
-1644 -31 -1645 0
-1644 31 1645 0
1644 -31 1645 0
1644 31 -1645 0
-1645 -34 -1646 0
-1645 34 1646 0
1645 -34 1646 0
1645 34 -1646 0
-1646 -35 -1647 0
-1646 35 1647 0
1646 -35 1647 0
1646 35 -1647 0
-1647 -36 -1648 0
-1647 36 1648 0
1647 -36 1648 0
1647 36 -1648 0
-1648 -37 -1649 0
-1648 37 1649 0
1648 -37 1649 0
1648 37 -1649 0
-1649 -38 -1650 0
-1649 38 1650 0
1649 -38 1650 0
1649 38 -1650 0
-1650 -40 -1651 0
-1650 40 1651 0
1650 -40 1651 0
1650 40 -1651 0
1638 1651 0
-1 -9 -1652 0
-1 9 1652 0
1 -9 1652 0
1 9 -1652 0
-1652 -10 -1653 0
-1652 10 1653 0
1652 -10 1653 0
1652 10 -1653 0
-1653 -21 -1654 0
-1653 21 1654 0
1653 -21 1654 0
1653 21 -1654 0
-1654 -29 -1655 0
-1654 29 1655 0
1654 -29 1655 0
1654 29 -1655 0
-1655 -30 -1656 0
-1655 30 1656 0
1655 -30 1656 0
1655 30 -1656 0
-31 -39 -1657 0
-31 39 1657 0
31 -39 1657 0
31 39 -1657 0
-1657 -40 -1658 0
-1657 40 1658 0
1657 -40 1658 0
1657 40 -1658 0
1656 1658 0
-1 -2 -1659 0
-1 2 1659 0
1 -2 1659 0
1 2 -1659 0
-1659 -4 -1660 0
-1659 4 1660 0
1659 -4 1660 0
1659 4 -1660 0
-1660 -9 -1661 0
-1660 9 1661 0
1660 -9 1661 0
1660 9 -1661 0
-1661 -10 -1662 0
-1661 10 1662 0
1661 -10 1662 0
1661 10 -1662 0
-1662 -21 -1663 0
-1662 21 1663 0
1662 -21 1663 0
1662 21 -1663 0
-1663 -22 -1664 0
-1663 22 1664 0
1663 -22 1664 0
1663 22 -1664 0
-1664 -24 -1665 0
-1664 24 1665 0
1664 -24 1665 0
1664 24 -1665 0
-1665 -29 -1666 0
-1665 29 1666 0
1665 -29 1666 0
1665 29 -1666 0
-1666 -30 -1667 0
-1666 30 1667 0
1666 -30 1667 0
1666 30 -1667 0
-31 -32 -1668 0
-31 32 1668 0
31 -32 1668 0
31 32 -1668 0
-1668 -34 -1669 0
-1668 34 1669 0
1668 -34 1669 0
1668 34 -1669 0
-1669 -39 -1670 0
-1669 39 1670 0
1669 -39 1670 0
1669 39 -1670 0
-1670 -40 -1671 0
-1670 40 1671 0
1670 -40 1671 0
1670 40 -1671 0
1667 1671 0
-11 -13 -1672 0
-11 13 1672 0
11 -13 1672 0
11 13 -1672 0
-1672 -14 -1673 0
-1672 14 1673 0
1672 -14 1673 0
1672 14 -1673 0
-1673 -15 -1674 0
-1673 15 1674 0
1673 -15 1674 0
1673 15 -1674 0
-1674 -19 -1675 0
-1674 19 1675 0
1674 -19 1675 0
1674 19 -1675 0
-1675 -20 -1676 0
-1675 20 1676 0
1675 -20 1676 0
1675 20 -1676 0
-1676 -21 -1677 0
-1676 21 1677 0
1676 -21 1677 0
1676 21 -1677 0
-1677 -23 -1678 0
-1677 23 1678 0
1677 -23 1678 0
1677 23 -1678 0
-1678 -24 -1679 0
-1678 24 1679 0
1678 -24 1679 0
1678 24 -1679 0
-1679 -25 -1680 0
-1679 25 1680 0
1679 -25 1680 0
1679 25 -1680 0
-1680 -29 -1681 0
-1680 29 1681 0
1680 -29 1681 0
1680 29 -1681 0
-1681 -30 -1682 0
-1681 30 1682 0
1681 -30 1682 0
1681 30 -1682 0
-31 -33 -1683 0
-31 33 1683 0
31 -33 1683 0
31 33 -1683 0
-1683 -34 -1684 0
-1683 34 1684 0
1683 -34 1684 0
1683 34 -1684 0
-1684 -35 -1685 0
-1684 35 1685 0
1684 -35 1685 0
1684 35 -1685 0
-1685 -39 -1686 0
-1685 39 1686 0
1685 -39 1686 0
1685 39 -1686 0
-1686 -40 -1687 0
-1686 40 1687 0
1686 -40 1687 0
1686 40 -1687 0
1682 1687 0
-11 -15 -1688 0
-11 15 1688 0
11 -15 1688 0
11 15 -1688 0
-1688 -18 -1689 0
-1688 18 1689 0
1688 -18 1689 0
1688 18 -1689 0
-1689 -19 -1690 0
-1689 19 1690 0
1689 -19 1690 0
1689 19 -1690 0
-1690 -20 -1691 0
-1690 20 1691 0
1690 -20 1691 0
1690 20 -1691 0
-1691 -21 -1692 0
-1691 21 1692 0
1691 -21 1692 0
1691 21 -1692 0
-1692 -25 -1693 0
-1692 25 1693 0
1692 -25 1693 0
1692 25 -1693 0
-1693 -28 -1694 0
-1693 28 1694 0
1693 -28 1694 0
1693 28 -1694 0
-1694 -29 -1695 0
-1694 29 1695 0
1694 -29 1695 0
1694 29 -1695 0
-1695 -30 -1696 0
-1695 30 1696 0
1695 -30 1696 0
1695 30 -1696 0
-31 -35 -1697 0
-31 35 1697 0
31 -35 1697 0
31 35 -1697 0
-1697 -38 -1698 0
-1697 38 1698 0
1697 -38 1698 0
1697 38 -1698 0
-1698 -39 -1699 0
-1698 39 1699 0
1698 -39 1699 0
1698 39 -1699 0
-1699 -40 -1700 0
-1699 40 1700 0
1699 -40 1700 0
1699 40 -1700 0
1696 1700 0
-11 -14 -1701 0
-11 14 1701 0
11 -14 1701 0
11 14 -1701 0
-1701 -15 -1702 0
-1701 15 1702 0
1701 -15 1702 0
1701 15 -1702 0
-1702 -18 -1703 0
-1702 18 1703 0
1702 -18 1703 0
1702 18 -1703 0
-1703 -19 -1704 0
-1703 19 1704 0
1703 -19 1704 0
1703 19 -1704 0
-1704 -20 -1705 0
-1704 20 1705 0
1704 -20 1705 0
1704 20 -1705 0
-1705 -21 -1706 0
-1705 21 1706 0
1705 -21 1706 0
1705 21 -1706 0
-1706 -24 -1707 0
-1706 24 1707 0
1706 -24 1707 0
1706 24 -1707 0
-1707 -25 -1708 0
-1707 25 1708 0
1707 -25 1708 0
1707 25 -1708 0
-1708 -28 -1709 0
-1708 28 1709 0
1708 -28 1709 0
1708 28 -1709 0
-1709 -29 -1710 0
-1709 29 1710 0
1709 -29 1710 0
1709 29 -1710 0
-1710 -30 -1711 0
-1710 30 1711 0
1710 -30 1711 0
1710 30 -1711 0
-1 -4 -1712 0
-1 4 1712 0
1 -4 1712 0
1 4 -1712 0
-1712 -5 -1713 0
-1712 5 1713 0
1712 -5 1713 0
1712 5 -1713 0
-1713 -8 -1714 0
-1713 8 1714 0
1713 -8 1714 0
1713 8 -1714 0
-1714 -9 -1715 0
-1714 9 1715 0
1714 -9 1715 0
1714 9 -1715 0
-1715 -10 -1716 0
-1715 10 1716 0
1715 -10 1716 0
1715 10 -1716 0
-1716 -11 -1717 0
-1716 11 1717 0
1716 -11 1717 0
1716 11 -1717 0
-1717 -14 -1718 0
-1717 14 1718 0
1717 -14 1718 0
1717 14 -1718 0
-1718 -15 -1719 0
-1718 15 1719 0
1718 -15 1719 0
1718 15 -1719 0
-1719 -18 -1720 0
-1719 18 1720 0
1719 -18 1720 0
1719 18 -1720 0
-1720 -19 -1721 0
-1720 19 1721 0
1720 -19 1721 0
1720 19 -1721 0
-1721 -20 -1722 0
-1721 20 1722 0
1721 -20 1722 0
1721 20 -1722 0
-1722 -31 -1723 0
-1722 31 1723 0
1722 -31 1723 0
1722 31 -1723 0
-1723 -34 -1724 0
-1723 34 1724 0
1723 -34 1724 0
1723 34 -1724 0
-1724 -35 -1725 0
-1724 35 1725 0
1724 -35 1725 0
1724 35 -1725 0
-1725 -38 -1726 0
-1725 38 1726 0
1725 -38 1726 0
1725 38 -1726 0
-1726 -39 -1727 0
-1726 39 1727 0
1726 -39 1727 0
1726 39 -1727 0
-1727 -40 -1728 0
-1727 40 1728 0
1727 -40 1728 0
1727 40 -1728 0
1711 1728 0
-2 -3 -1729 0
-2 3 1729 0
2 -3 1729 0
2 3 -1729 0
-1729 -4 -1730 0
-1729 4 1730 0
1729 -4 1730 0
1729 4 -1730 0
-1730 -6 -1731 0
-1730 6 1731 0
1730 -6 1731 0
1730 6 -1731 0
-1731 -8 -1732 0
-1731 8 1732 0
1731 -8 1732 0
1731 8 -1732 0
-1732 -9 -1733 0
-1732 9 1733 0
1732 -9 1733 0
1732 9 -1733 0
-1733 -10 -1734 0
-1733 10 1734 0
1733 -10 1734 0
1733 10 -1734 0
-1734 -12 -1735 0
-1734 12 1735 0
1734 -12 1735 0
1734 12 -1735 0
-1735 -13 -1736 0
-1735 13 1736 0
1735 -13 1736 0
1735 13 -1736 0
-1736 -14 -1737 0
-1736 14 1737 0
1736 -14 1737 0
1736 14 -1737 0
-1737 -16 -1738 0
-1737 16 1738 0
1737 -16 1738 0
1737 16 -1738 0
-1738 -18 -1739 0
-1738 18 1739 0
1738 -18 1739 0
1738 18 -1739 0
-1739 -19 -1740 0
-1739 19 1740 0
1739 -19 1740 0
1739 19 -1740 0
-1740 -20 -1741 0
-1740 20 1741 0
1740 -20 1741 0
1740 20 -1741 0
-1741 -22 -1742 0
-1741 22 1742 0
1741 -22 1742 0
1741 22 -1742 0
-1742 -23 -1743 0
-1742 23 1743 0
1742 -23 1743 0
1742 23 -1743 0
-1743 -24 -1744 0
-1743 24 1744 0
1743 -24 1744 0
1743 24 -1744 0
-1744 -26 -1745 0
-1744 26 1745 0
1744 -26 1745 0
1744 26 -1745 0
-1745 -28 -1746 0
-1745 28 1746 0
1745 -28 1746 0
1745 28 -1746 0
-1746 -29 -1747 0
-1746 29 1747 0
1746 -29 1747 0
1746 29 -1747 0
-1747 -30 -1748 0
-1747 30 1748 0
1747 -30 1748 0
1747 30 -1748 0
-12 -13 -1749 0
-12 13 1749 0
12 -13 1749 0
12 13 -1749 0
-1749 -14 -1750 0
-1749 14 1750 0
1749 -14 1750 0
1749 14 -1750 0
-1750 -16 -1751 0
-1750 16 1751 0
1750 -16 1751 0
1750 16 -1751 0
-1751 -18 -1752 0
-1751 18 1752 0
1751 -18 1752 0
1751 18 -1752 0
-1752 -19 -1753 0
-1752 19 1753 0
1752 -19 1753 0
1752 19 -1753 0
-1753 -20 -1754 0
-1753 20 1754 0
1753 -20 1754 0
1753 20 -1754 0
-1754 -32 -1755 0
-1754 32 1755 0
1754 -32 1755 0
1754 32 -1755 0
-1755 -33 -1756 0
-1755 33 1756 0
1755 -33 1756 0
1755 33 -1756 0
-1756 -34 -1757 0
-1756 34 1757 0
1756 -34 1757 0
1756 34 -1757 0
-1757 -36 -1758 0
-1757 36 1758 0
1757 -36 1758 0
1757 36 -1758 0
-1758 -38 -1759 0
-1758 38 1759 0
1758 -38 1759 0
1758 38 -1759 0
-1759 -39 -1760 0
-1759 39 1760 0
1759 -39 1760 0
1759 39 -1760 0
-1760 -40 -1761 0
-1760 40 1761 0
1760 -40 1761 0
1760 40 -1761 0
1748 1761 0
-21 -22 -1762 0
-21 22 1762 0
21 -22 1762 0
21 22 -1762 0
-1762 -24 -1763 0
-1762 24 1763 0
1762 -24 1763 0
1762 24 -1763 0
-1763 -27 -1764 0
-1763 27 1764 0
1763 -27 1764 0
1763 27 -1764 0
-1764 -28 -1765 0
-1764 28 1765 0
1764 -28 1765 0
1764 28 -1765 0
-1765 -29 -1766 0
-1765 29 1766 0
1765 -29 1766 0
1765 29 -1766 0
-1766 -30 -1767 0
-1766 30 1767 0
1766 -30 1767 0
1766 30 -1767 0
-1 -2 -1768 0
-1 2 1768 0
1 -2 1768 0
1 2 -1768 0
-1768 -4 -1769 0
-1768 4 1769 0
1768 -4 1769 0
1768 4 -1769 0
-1769 -7 -1770 0
-1769 7 1770 0
1769 -7 1770 0
1769 7 -1770 0
-1770 -8 -1771 0
-1770 8 1771 0
1770 -8 1771 0
1770 8 -1771 0
-1771 -9 -1772 0
-1771 9 1772 0
1771 -9 1772 0
1771 9 -1772 0
-1772 -10 -1773 0
-1772 10 1773 0
1772 -10 1773 0
1772 10 -1773 0
-1773 -31 -1774 0
-1773 31 1774 0
1773 -31 1774 0
1773 31 -1774 0
-1774 -32 -1775 0
-1774 32 1775 0
1774 -32 1775 0
1774 32 -1775 0
-1775 -34 -1776 0
-1775 34 1776 0
1775 -34 1776 0
1775 34 -1776 0
-1776 -37 -1777 0
-1776 37 1777 0
1776 -37 1777 0
1776 37 -1777 0
-1777 -38 -1778 0
-1777 38 1778 0
1777 -38 1778 0
1777 38 -1778 0
-1778 -39 -1779 0
-1778 39 1779 0
1778 -39 1779 0
1778 39 -1779 0
-1779 -40 -1780 0
-1779 40 1780 0
1779 -40 1780 0
1779 40 -1780 0
1767 1780 0
-3 -4 -1781 0
-3 4 1781 0
3 -4 1781 0
3 4 -1781 0
-1781 -7 -1782 0
-1781 7 1782 0
1781 -7 1782 0
1781 7 -1782 0
-1782 -8 -1783 0
-1782 8 1783 0
1782 -8 1783 0
1782 8 -1783 0
-1783 -9 -1784 0
-1783 9 1784 0
1783 -9 1784 0
1783 9 -1784 0
-1784 -10 -1785 0
-1784 10 1785 0
1784 -10 1785 0
1784 10 -1785 0
-1785 -13 -1786 0
-1785 13 1786 0
1785 -13 1786 0
1785 13 -1786 0
-1786 -14 -1787 0
-1786 14 1787 0
1786 -14 1787 0
1786 14 -1787 0
-1787 -17 -1788 0
-1787 17 1788 0
1787 -17 1788 0
1787 17 -1788 0
-1788 -18 -1789 0
-1788 18 1789 0
1788 -18 1789 0
1788 18 -1789 0
-1789 -19 -1790 0
-1789 19 1790 0
1789 -19 1790 0
1789 19 -1790 0
-1790 -20 -1791 0
-1790 20 1791 0
1790 -20 1791 0
1790 20 -1791 0
-1791 -23 -1792 0
-1791 23 1792 0
1791 -23 1792 0
1791 23 -1792 0
-1792 -24 -1793 0
-1792 24 1793 0
1792 -24 1793 0
1792 24 -1793 0
-1793 -27 -1794 0
-1793 27 1794 0
1793 -27 1794 0
1793 27 -1794 0
-1794 -28 -1795 0
-1794 28 1795 0
1794 -28 1795 0
1794 28 -1795 0
-1795 -29 -1796 0
-1795 29 1796 0
1795 -29 1796 0
1795 29 -1796 0
-1796 -30 -1797 0
-1796 30 1797 0
1796 -30 1797 0
1796 30 -1797 0
-3 -4 -1798 0
-3 4 1798 0
3 -4 1798 0
3 4 -1798 0
-1798 -7 -1799 0
-1798 7 1799 0
1798 -7 1799 0
1798 7 -1799 0
-1799 -8 -1800 0
-1799 8 1800 0
1799 -8 1800 0
1799 8 -1800 0
-1800 -9 -1801 0
-1800 9 1801 0
1800 -9 1801 0
1800 9 -1801 0
-1801 -10 -1802 0
-1801 10 1802 0
1801 -10 1802 0
1801 10 -1802 0
-1802 -33 -1803 0
-1802 33 1803 0
1802 -33 1803 0
1802 33 -1803 0
-1803 -34 -1804 0
-1803 34 1804 0
1803 -34 1804 0
1803 34 -1804 0
-1804 -37 -1805 0
-1804 37 1805 0
1804 -37 1805 0
1804 37 -1805 0
-1805 -38 -1806 0
-1805 38 1806 0
1805 -38 1806 0
1805 38 -1806 0
-1806 -39 -1807 0
-1806 39 1807 0
1806 -39 1807 0
1806 39 -1807 0
-1807 -40 -1808 0
-1807 40 1808 0
1807 -40 1808 0
1807 40 -1808 0
1797 1808 0
-1 -2 -1809 0
-1 2 1809 0
1 -2 1809 0
1 2 -1809 0
-1809 -4 -1810 0
-1809 4 1810 0
1809 -4 1810 0
1809 4 -1810 0
-1810 -5 -1811 0
-1810 5 1811 0
1810 -5 1811 0
1810 5 -1811 0
-1811 -7 -1812 0
-1811 7 1812 0
1811 -7 1812 0
1811 7 -1812 0
-1812 -8 -1813 0
-1812 8 1813 0
1812 -8 1813 0
1812 8 -1813 0
-1813 -9 -1814 0
-1813 9 1814 0
1813 -9 1814 0
1813 9 -1814 0
-1814 -10 -1815 0
-1814 10 1815 0
1814 -10 1815 0
1814 10 -1815 0
-1815 -21 -1816 0
-1815 21 1816 0
1815 -21 1816 0
1815 21 -1816 0
-1816 -22 -1817 0
-1816 22 1817 0
1816 -22 1817 0
1816 22 -1817 0
-1817 -24 -1818 0
-1817 24 1818 0
1817 -24 1818 0
1817 24 -1818 0
-1818 -25 -1819 0
-1818 25 1819 0
1818 -25 1819 0
1818 25 -1819 0
-1819 -27 -1820 0
-1819 27 1820 0
1819 -27 1820 0
1819 27 -1820 0
-1820 -28 -1821 0
-1820 28 1821 0
1820 -28 1821 0
1820 28 -1821 0
-1821 -29 -1822 0
-1821 29 1822 0
1821 -29 1822 0
1821 29 -1822 0
-1822 -30 -1823 0
-1822 30 1823 0
1822 -30 1823 0
1822 30 -1823 0
-1 -2 -1824 0
-1 2 1824 0
1 -2 1824 0
1 2 -1824 0
-1824 -4 -1825 0
-1824 4 1825 0
1824 -4 1825 0
1824 4 -1825 0
-1825 -5 -1826 0
-1825 5 1826 0
1825 -5 1826 0
1825 5 -1826 0
-1826 -7 -1827 0
-1826 7 1827 0
1826 -7 1827 0
1826 7 -1827 0
-1827 -8 -1828 0
-1827 8 1828 0
1827 -8 1828 0
1827 8 -1828 0
-1828 -9 -1829 0
-1828 9 1829 0
1828 -9 1829 0
1828 9 -1829 0
-1829 -10 -1830 0
-1829 10 1830 0
1829 -10 1830 0
1829 10 -1830 0
-1830 -11 -1831 0
-1830 11 1831 0
1830 -11 1831 0
1830 11 -1831 0
-1831 -12 -1832 0
-1831 12 1832 0
1831 -12 1832 0
1831 12 -1832 0
-1832 -14 -1833 0
-1832 14 1833 0
1832 -14 1833 0
1832 14 -1833 0
-1833 -15 -1834 0
-1833 15 1834 0
1833 -15 1834 0
1833 15 -1834 0
-1834 -17 -1835 0
-1834 17 1835 0
1834 -17 1835 0
1834 17 -1835 0
-1835 -18 -1836 0
-1835 18 1836 0
1835 -18 1836 0
1835 18 -1836 0
-1836 -19 -1837 0
-1836 19 1837 0
1836 -19 1837 0
1836 19 -1837 0
-1837 -20 -1838 0
-1837 20 1838 0
1837 -20 1838 0
1837 20 -1838 0
-1838 -31 -1839 0
-1838 31 1839 0
1838 -31 1839 0
1838 31 -1839 0
-1839 -32 -1840 0
-1839 32 1840 0
1839 -32 1840 0
1839 32 -1840 0
-1840 -34 -1841 0
-1840 34 1841 0
1840 -34 1841 0
1840 34 -1841 0
-1841 -35 -1842 0
-1841 35 1842 0
1841 -35 1842 0
1841 35 -1842 0
-1842 -37 -1843 0
-1842 37 1843 0
1842 -37 1843 0
1842 37 -1843 0
-1843 -38 -1844 0
-1843 38 1844 0
1843 -38 1844 0
1843 38 -1844 0
-1844 -39 -1845 0
-1844 39 1845 0
1844 -39 1845 0
1844 39 -1845 0
-1845 -40 -1846 0
-1845 40 1846 0
1845 -40 1846 0
1845 40 -1846 0
1823 1846 0
-1 -6 -1847 0
-1 6 1847 0
1 -6 1847 0
1 6 -1847 0
-1847 -7 -1848 0
-1847 7 1848 0
1847 -7 1848 0
1847 7 -1848 0
-1848 -8 -1849 0
-1848 8 1849 0
1848 -8 1849 0
1848 8 -1849 0
-1849 -9 -1850 0
-1849 9 1850 0
1849 -9 1850 0
1849 9 -1850 0
-1850 -10 -1851 0
-1850 10 1851 0
1850 -10 1851 0
1850 10 -1851 0
-1851 -11 -1852 0
-1851 11 1852 0
1851 -11 1852 0
1851 11 -1852 0
-1852 -16 -1853 0
-1852 16 1853 0
1852 -16 1853 0
1852 16 -1853 0
-1853 -17 -1854 0
-1853 17 1854 0
1853 -17 1854 0
1853 17 -1854 0
-1854 -18 -1855 0
-1854 18 1855 0
1854 -18 1855 0
1854 18 -1855 0
-1855 -19 -1856 0
-1855 19 1856 0
1855 -19 1856 0
1855 19 -1856 0
-1856 -20 -1857 0
-1856 20 1857 0
1856 -20 1857 0
1856 20 -1857 0
-1857 -21 -1858 0
-1857 21 1858 0
1857 -21 1858 0
1857 21 -1858 0
-1858 -26 -1859 0
-1858 26 1859 0
1858 -26 1859 0
1858 26 -1859 0
-1859 -27 -1860 0
-1859 27 1860 0
1859 -27 1860 0
1859 27 -1860 0
-1860 -28 -1861 0
-1860 28 1861 0
1860 -28 1861 0
1860 28 -1861 0
-1861 -29 -1862 0
-1861 29 1862 0
1861 -29 1862 0
1861 29 -1862 0
-1862 -30 -1863 0
-1862 30 1863 0
1862 -30 1863 0
1862 30 -1863 0
-1 -6 -1864 0
-1 6 1864 0
1 -6 1864 0
1 6 -1864 0
-1864 -7 -1865 0
-1864 7 1865 0
1864 -7 1865 0
1864 7 -1865 0
-1865 -8 -1866 0
-1865 8 1866 0
1865 -8 1866 0
1865 8 -1866 0
-1866 -9 -1867 0
-1866 9 1867 0
1866 -9 1867 0
1866 9 -1867 0
-1867 -10 -1868 0
-1867 10 1868 0
1867 -10 1868 0
1867 10 -1868 0
-1868 -11 -1869 0
-1868 11 1869 0
1868 -11 1869 0
1868 11 -1869 0
-1869 -16 -1870 0
-1869 16 1870 0
1869 -16 1870 0
1869 16 -1870 0
-1870 -17 -1871 0
-1870 17 1871 0
1870 -17 1871 0
1870 17 -1871 0
-1871 -18 -1872 0
-1871 18 1872 0
1871 -18 1872 0
1871 18 -1872 0
-1872 -19 -1873 0
-1872 19 1873 0
1872 -19 1873 0
1872 19 -1873 0
-1873 -20 -1874 0
-1873 20 1874 0
1873 -20 1874 0
1873 20 -1874 0
-1874 -31 -1875 0
-1874 31 1875 0
1874 -31 1875 0
1874 31 -1875 0
-1875 -36 -1876 0
-1875 36 1876 0
1875 -36 1876 0
1875 36 -1876 0
-1876 -37 -1877 0
-1876 37 1877 0
1876 -37 1877 0
1876 37 -1877 0
-1877 -38 -1878 0
-1877 38 1878 0
1877 -38 1878 0
1877 38 -1878 0
-1878 -39 -1879 0
-1878 39 1879 0
1878 -39 1879 0
1878 39 -1879 0
-1879 -40 -1880 0
-1879 40 1880 0
1879 -40 1880 0
1879 40 -1880 0
1863 1880 0
-11 -13 -1881 0
-11 13 1881 0
11 -13 1881 0
11 13 -1881 0
-1881 -14 -1882 0
-1881 14 1882 0
1881 -14 1882 0
1881 14 -1882 0
-1882 -15 -1883 0
-1882 15 1883 0
1882 -15 1883 0
1882 15 -1883 0
-1883 -16 -1884 0
-1883 16 1884 0
1883 -16 1884 0
1883 16 -1884 0
-1884 -17 -1885 0
-1884 17 1885 0
1884 -17 1885 0
1884 17 -1885 0
-1885 -18 -1886 0
-1885 18 1886 0
1885 -18 1886 0
1885 18 -1886 0
-1886 -19 -1887 0
-1886 19 1887 0
1886 -19 1887 0
1886 19 -1887 0
-1887 -20 -1888 0
-1887 20 1888 0
1887 -20 1888 0
1887 20 -1888 0
-1888 -21 -1889 0
-1888 21 1889 0
1888 -21 1889 0
1888 21 -1889 0
-1889 -23 -1890 0
-1889 23 1890 0
1889 -23 1890 0
1889 23 -1890 0
-1890 -24 -1891 0
-1890 24 1891 0
1890 -24 1891 0
1890 24 -1891 0
-1891 -25 -1892 0
-1891 25 1892 0
1891 -25 1892 0
1891 25 -1892 0
-1892 -26 -1893 0
-1892 26 1893 0
1892 -26 1893 0
1892 26 -1893 0
-1893 -27 -1894 0
-1893 27 1894 0
1893 -27 1894 0
1893 27 -1894 0
-1894 -28 -1895 0
-1894 28 1895 0
1894 -28 1895 0
1894 28 -1895 0
-1895 -29 -1896 0
-1895 29 1896 0
1895 -29 1896 0
1895 29 -1896 0
-1896 -30 -1897 0
-1896 30 1897 0
1896 -30 1897 0
1896 30 -1897 0
-11 -13 -1898 0
-11 13 1898 0
11 -13 1898 0
11 13 -1898 0
-1898 -14 -1899 0
-1898 14 1899 0
1898 -14 1899 0
1898 14 -1899 0
-1899 -15 -1900 0
-1899 15 1900 0
1899 -15 1900 0
1899 15 -1900 0
-1900 -16 -1901 0
-1900 16 1901 0
1900 -16 1901 0
1900 16 -1901 0
-1901 -17 -1902 0
-1901 17 1902 0
1901 -17 1902 0
1901 17 -1902 0
-1902 -18 -1903 0
-1902 18 1903 0
1902 -18 1903 0
1902 18 -1903 0
-1903 -19 -1904 0
-1903 19 1904 0
1903 -19 1904 0
1903 19 -1904 0
-1904 -20 -1905 0
-1904 20 1905 0
1904 -20 1905 0
1904 20 -1905 0
-1905 -31 -1906 0
-1905 31 1906 0
1905 -31 1906 0
1905 31 -1906 0
-1906 -33 -1907 0
-1906 33 1907 0
1906 -33 1907 0
1906 33 -1907 0
-1907 -34 -1908 0
-1907 34 1908 0
1907 -34 1908 0
1907 34 -1908 0
-1908 -35 -1909 0
-1908 35 1909 0
1908 -35 1909 0
1908 35 -1909 0
-1909 -36 -1910 0
-1909 36 1910 0
1909 -36 1910 0
1909 36 -1910 0
-1910 -37 -1911 0
-1910 37 1911 0
1910 -37 1911 0
1910 37 -1911 0
-1911 -38 -1912 0
-1911 38 1912 0
1911 -38 1912 0
1911 38 -1912 0
-1912 -39 -1913 0
-1912 39 1913 0
1912 -39 1913 0
1912 39 -1913 0
-1913 -40 -1914 0
-1913 40 1914 0
1913 -40 1914 0
1913 40 -1914 0
1897 1914 0
