p cnf 00000000000000001827 00000000000000007255
-41 3 0
41 -3 0
-42 33 0
42 -33 0
41 42 0
-2 -3 -43 0
-2 3 43 0
2 -3 43 0
2 3 -43 0
-43 -4 -44 0
-43 4 44 0
43 -4 44 0
43 4 -44 0
-44 -7 -45 0
-44 7 45 0
44 -7 45 0
44 7 -45 0
-12 -13 -46 0
-12 13 46 0
12 -13 46 0
12 13 -46 0
-46 -14 -47 0
-46 14 47 0
46 -14 47 0
46 14 -47 0
-47 -17 -48 0
-47 17 48 0
47 -17 48 0
47 17 -48 0
-48 -32 -49 0
-48 32 49 0
48 -32 49 0
48 32 -49 0
-49 -33 -50 0
-49 33 50 0
49 -33 50 0
49 33 -50 0
-50 -34 -51 0
-50 34 51 0
50 -34 51 0
50 34 -51 0
-51 -37 -52 0
-51 37 52 0
51 -37 52 0
51 37 -52 0
45 52 0
-2 -3 -53 0
-2 3 53 0
2 -3 53 0
2 3 -53 0
-53 -6 -54 0
-53 6 54 0
53 -6 54 0
53 6 -54 0
-54 -7 -55 0
-54 7 55 0
54 -7 55 0
54 7 -55 0
-12 -13 -56 0
-12 13 56 0
12 -13 56 0
12 13 -56 0
-56 -16 -57 0
-56 16 57 0
56 -16 57 0
56 16 -57 0
-57 -17 -58 0
-57 17 58 0
57 -17 58 0
57 17 -58 0
-58 -22 -59 0
-58 22 59 0
58 -22 59 0
58 22 -59 0
-59 -23 -60 0
-59 23 60 0
59 -23 60 0
59 23 -60 0
-60 -26 -61 0
-60 26 61 0
60 -26 61 0
60 26 -61 0
-61 -27 -62 0
-61 27 62 0
61 -27 62 0
61 27 -62 0
55 62 0
-63 8 0
63 -8 0
-64 18 0
64 -18 0
63 64 0
-4 -6 -65 0
-4 6 65 0
4 -6 65 0
4 6 -65 0
-65 -8 -66 0
-65 8 66 0
65 -8 66 0
65 8 -66 0
-24 -26 -67 0
-24 26 67 0
24 -26 67 0
24 26 -67 0
-67 -28 -68 0
-67 28 68 0
67 -28 68 0
67 28 -68 0
66 68 0
-2 -6 -69 0
-2 6 69 0
2 -6 69 0
2 6 -69 0
-69 -7 -70 0
-69 7 70 0
69 -7 70 0
69 7 -70 0
-70 -8 -71 0
-70 8 71 0
70 -8 71 0
70 8 -71 0
-22 -26 -72 0
-22 26 72 0
22 -26 72 0
22 26 -72 0
-72 -27 -73 0
-72 27 73 0
72 -27 73 0
72 27 -73 0
-73 -28 -74 0
-73 28 74 0
73 -28 74 0
73 28 -74 0
-74 -32 -75 0
-74 32 75 0
74 -32 75 0
74 32 -75 0
-75 -36 -76 0
-75 36 76 0
75 -36 76 0
75 36 -76 0
-76 -37 -77 0
-76 37 77 0
76 -37 77 0
76 37 -77 0
-77 -38 -78 0
-77 38 78 0
77 -38 78 0
77 38 -78 0
71 78 0
-79 9 0
79 -9 0
-19 -29 -80 0
-19 29 80 0
19 -29 80 0
19 29 -80 0
-80 -39 -81 0
-80 39 81 0
80 -39 81 0
80 39 -81 0
79 81 0
-2 -6 -82 0
-2 6 82 0
2 -6 82 0
2 6 -82 0
-82 -7 -83 0
-82 7 83 0
82 -7 83 0
82 7 -83 0
-83 -9 -84 0
-83 9 84 0
83 -9 84 0
83 9 -84 0
-32 -36 -85 0
-32 36 85 0
32 -36 85 0
32 36 -85 0
-85 -37 -86 0
-85 37 86 0
85 -37 86 0
85 37 -86 0
-86 -39 -87 0
-86 39 87 0
86 -39 87 0
86 39 -87 0
84 87 0
-2 -3 -88 0
-2 3 88 0
2 -3 88 0
2 3 -88 0
-88 -6 -89 0
-88 6 89 0
88 -6 89 0
88 6 -89 0
-89 -7 -90 0
-89 7 90 0
89 -7 90 0
89 7 -90 0
-90 -9 -91 0
-90 9 91 0
90 -9 91 0
90 9 -91 0
-32 -33 -92 0
-32 33 92 0
32 -33 92 0
32 33 -92 0
-92 -36 -93 0
-92 36 93 0
92 -36 93 0
92 36 -93 0
-93 -37 -94 0
-93 37 94 0
93 -37 94 0
93 37 -94 0
-94 -39 -95 0
-94 39 95 0
94 -39 95 0
94 39 -95 0
91 95 0
-2 -3 -96 0
-2 3 96 0
2 -3 96 0
2 3 -96 0
-96 -10 -97 0
-96 10 97 0
96 -10 97 0
96 10 -97 0
-12 -13 -98 0
-12 13 98 0
12 -13 98 0
12 13 -98 0
-98 -20 -99 0
-98 20 99 0
98 -20 99 0
98 20 -99 0
-99 -22 -100 0
-99 22 100 0
99 -22 100 0
99 22 -100 0
-100 -23 -101 0
-100 23 101 0
100 -23 101 0
100 23 -101 0
-101 -30 -102 0
-101 30 102 0
101 -30 102 0
101 30 -102 0
-102 -32 -103 0
-102 32 103 0
102 -32 103 0
102 32 -103 0
-103 -33 -104 0
-103 33 104 0
103 -33 104 0
103 33 -104 0
-104 -40 -105 0
-104 40 105 0
104 -40 105 0
104 40 -105 0
97 105 0
-3 -4 -106 0
-3 4 106 0
3 -4 106 0
3 4 -106 0
-106 -7 -107 0
-106 7 107 0
106 -7 107 0
106 7 -107 0
-107 -10 -108 0
-107 10 108 0
107 -10 108 0
107 10 -108 0
-13 -14 -109 0
-13 14 109 0
13 -14 109 0
13 14 -109 0
-109 -17 -110 0
-109 17 110 0
109 -17 110 0
109 17 -110 0
-110 -20 -111 0
-110 20 111 0
110 -20 111 0
110 20 -111 0
108 111 0
-2 -3 -112 0
-2 3 112 0
2 -3 112 0
2 3 -112 0
-112 -8 -113 0
-112 8 113 0
112 -8 113 0
112 8 -113 0
-113 -10 -114 0
-113 10 114 0
113 -10 114 0
113 10 -114 0
-12 -13 -115 0
-12 13 115 0
12 -13 115 0
12 13 -115 0
-115 -18 -116 0
-115 18 116 0
115 -18 116 0
115 18 -116 0
-116 -20 -117 0
-116 20 117 0
116 -20 117 0
116 20 -117 0
-117 -22 -118 0
-117 22 118 0
117 -22 118 0
117 22 -118 0
-118 -23 -119 0
-118 23 119 0
118 -23 119 0
118 23 -119 0
-119 -28 -120 0
-119 28 120 0
119 -28 120 0
119 28 -120 0
-120 -30 -121 0
-120 30 121 0
120 -30 121 0
120 30 -121 0
114 121 0
-3 -4 -122 0
-3 4 122 0
3 -4 122 0
3 4 -122 0
-122 -7 -123 0
-122 7 123 0
122 -7 123 0
122 7 -123 0
-123 -8 -124 0
-123 8 124 0
123 -8 124 0
123 8 -124 0
-124 -10 -125 0
-124 10 125 0
124 -10 125 0
124 10 -125 0
-13 -14 -126 0
-13 14 126 0
13 -14 126 0
13 14 -126 0
-126 -17 -127 0
-126 17 127 0
126 -17 127 0
126 17 -127 0
-127 -18 -128 0
-127 18 128 0
127 -18 128 0
127 18 -128 0
-128 -20 -129 0
-128 20 129 0
128 -20 129 0
128 20 -129 0
125 129 0
-6 -7 -130 0
-6 7 130 0
6 -7 130 0
6 7 -130 0
-130 -8 -131 0
-130 8 131 0
130 -8 131 0
130 8 -131 0
-131 -10 -132 0
-131 10 132 0
131 -10 132 0
131 10 -132 0
-16 -17 -133 0
-16 17 133 0
16 -17 133 0
16 17 -133 0
-133 -18 -134 0
-133 18 134 0
133 -18 134 0
133 18 -134 0
-134 -20 -135 0
-134 20 135 0
134 -20 135 0
134 20 -135 0
-135 -26 -136 0
-135 26 136 0
135 -26 136 0
135 26 -136 0
-136 -27 -137 0
-136 27 137 0
136 -27 137 0
136 27 -137 0
-137 -28 -138 0
-137 28 138 0
137 -28 138 0
137 28 -138 0
-138 -30 -139 0
-138 30 139 0
138 -30 139 0
138 30 -139 0
132 139 0
-2 -3 -140 0
-2 3 140 0
2 -3 140 0
2 3 -140 0
-140 -9 -141 0
-140 9 141 0
140 -9 141 0
140 9 -141 0
-141 -10 -142 0
-141 10 142 0
141 -10 142 0
141 10 -142 0
-12 -13 -143 0
-12 13 143 0
12 -13 143 0
12 13 -143 0
-143 -19 -144 0
-143 19 144 0
143 -19 144 0
143 19 -144 0
-144 -20 -145 0
-144 20 145 0
144 -20 145 0
144 20 -145 0
-145 -22 -146 0
-145 22 146 0
145 -22 146 0
145 22 -146 0
-146 -23 -147 0
-146 23 147 0
146 -23 147 0
146 23 -147 0
-147 -29 -148 0
-147 29 148 0
147 -29 148 0
147 29 -148 0
-148 -30 -149 0
-148 30 149 0
148 -30 149 0
148 30 -149 0
-149 -32 -150 0
-149 32 150 0
149 -32 150 0
149 32 -150 0
-150 -33 -151 0
-150 33 151 0
150 -33 151 0
150 33 -151 0
-151 -39 -152 0
-151 39 152 0
151 -39 152 0
151 39 -152 0
-152 -40 -153 0
-152 40 153 0
152 -40 153 0
152 40 -153 0
142 153 0
-2 -4 -154 0
-2 4 154 0
2 -4 154 0
2 4 -154 0
-154 -6 -155 0
-154 6 155 0
154 -6 155 0
154 6 -155 0
-155 -9 -156 0
-155 9 156 0
155 -9 156 0
155 9 -156 0
-156 -10 -157 0
-156 10 157 0
156 -10 157 0
156 10 -157 0
-22 -24 -158 0
-22 24 158 0
22 -24 158 0
22 24 -158 0
-158 -26 -159 0
-158 26 159 0
158 -26 159 0
158 26 -159 0
-159 -29 -160 0
-159 29 160 0
159 -29 160 0
159 29 -160 0
-160 -30 -161 0
-160 30 161 0
160 -30 161 0
160 30 -161 0
157 161 0
-2 -3 -162 0
-2 3 162 0
2 -3 162 0
2 3 -162 0
-162 -4 -163 0
-162 4 163 0
162 -4 163 0
162 4 -163 0
-163 -6 -164 0
-163 6 164 0
163 -6 164 0
163 6 -164 0
-164 -9 -165 0
-164 9 165 0
164 -9 165 0
164 9 -165 0
-165 -10 -166 0
-165 10 166 0
165 -10 166 0
165 10 -166 0
-22 -23 -167 0
-22 23 167 0
22 -23 167 0
22 23 -167 0
-167 -24 -168 0
-167 24 168 0
167 -24 168 0
167 24 -168 0
-168 -26 -169 0
-168 26 169 0
168 -26 169 0
168 26 -169 0
-169 -29 -170 0
-169 29 170 0
169 -29 170 0
169 29 -170 0
-170 -30 -171 0
-170 30 171 0
170 -30 171 0
170 30 -171 0
-171 -32 -172 0
-171 32 172 0
171 -32 172 0
171 32 -172 0
-172 -33 -173 0
-172 33 173 0
172 -33 173 0
172 33 -173 0
-173 -34 -174 0
-173 34 174 0
173 -34 174 0
173 34 -174 0
-174 -36 -175 0
-174 36 175 0
174 -36 175 0
174 36 -175 0
-175 -39 -176 0
-175 39 176 0
175 -39 176 0
175 39 -176 0
-176 -40 -177 0
-176 40 177 0
176 -40 177 0
176 40 -177 0
166 177 0
-2 -8 -178 0
-2 8 178 0
2 -8 178 0
2 8 -178 0
-178 -9 -179 0
-178 9 179 0
178 -9 179 0
178 9 -179 0
-179 -10 -180 0
-179 10 180 0
179 -10 180 0
179 10 -180 0
-22 -28 -181 0
-22 28 181 0
22 -28 181 0
22 28 -181 0
-181 -29 -182 0
-181 29 182 0
181 -29 182 0
181 29 -182 0
-182 -30 -183 0
-182 30 183 0
182 -30 183 0
182 30 -183 0
180 183 0
-2 -3 -184 0
-2 3 184 0
2 -3 184 0
2 3 -184 0
-184 -4 -185 0
-184 4 185 0
184 -4 185 0
184 4 -185 0
-185 -6 -186 0
-185 6 186 0
185 -6 186 0
185 6 -186 0
-186 -8 -187 0
-186 8 187 0
186 -8 187 0
186 8 -187 0
-187 -9 -188 0
-187 9 188 0
187 -9 188 0
187 9 -188 0
-188 -10 -189 0
-188 10 189 0
188 -10 189 0
188 10 -189 0
-12 -13 -190 0
-12 13 190 0
12 -13 190 0
12 13 -190 0
-190 -14 -191 0
-190 14 191 0
190 -14 191 0
190 14 -191 0
-191 -16 -192 0
-191 16 192 0
191 -16 192 0
191 16 -192 0
-192 -18 -193 0
-192 18 193 0
192 -18 193 0
192 18 -193 0
-193 -19 -194 0
-193 19 194 0
193 -19 194 0
193 19 -194 0
-194 -20 -195 0
-194 20 195 0
194 -20 195 0
194 20 -195 0
-195 -32 -196 0
-195 32 196 0
195 -32 196 0
195 32 -196 0
-196 -33 -197 0
-196 33 197 0
196 -33 197 0
196 33 -197 0
-197 -34 -198 0
-197 34 198 0
197 -34 198 0
197 34 -198 0
-198 -36 -199 0
-198 36 199 0
198 -36 199 0
198 36 -199 0
-199 -38 -200 0
-199 38 200 0
199 -38 200 0
199 38 -200 0
-200 -39 -201 0
-200 39 201 0
200 -39 201 0
200 39 -201 0
-201 -40 -202 0
-201 40 202 0
201 -40 202 0
201 40 -202 0
189 202 0
-3 -4 -203 0
-3 4 203 0
3 -4 203 0
3 4 -203 0
-203 -7 -204 0
-203 7 204 0
203 -7 204 0
203 7 -204 0
-204 -8 -205 0
-204 8 205 0
204 -8 205 0
204 8 -205 0
-205 -9 -206 0
-205 9 206 0
205 -9 206 0
205 9 -206 0
-206 -10 -207 0
-206 10 207 0
206 -10 207 0
206 10 -207 0
-23 -24 -208 0
-23 24 208 0
23 -24 208 0
23 24 -208 0
-208 -27 -209 0
-208 27 209 0
208 -27 209 0
208 27 -209 0
-209 -28 -210 0
-209 28 210 0
209 -28 210 0
209 28 -210 0
-210 -29 -211 0
-210 29 211 0
210 -29 211 0
210 29 -211 0
-211 -30 -212 0
-211 30 212 0
211 -30 212 0
211 30 -212 0
-212 -33 -213 0
-212 33 213 0
212 -33 213 0
212 33 -213 0
-213 -34 -214 0
-213 34 214 0
213 -34 214 0
213 34 -214 0
-214 -37 -215 0
-214 37 215 0
214 -37 215 0
214 37 -215 0
-215 -38 -216 0
-215 38 216 0
215 -38 216 0
215 38 -216 0
-216 -39 -217 0
-216 39 217 0
216 -39 217 0
216 39 -217 0
-217 -40 -218 0
-217 40 218 0
217 -40 218 0
217 40 -218 0
207 218 0
-6 -7 -219 0
-6 7 219 0
6 -7 219 0
6 7 -219 0
-219 -8 -220 0
-219 8 220 0
219 -8 220 0
219 8 -220 0
-220 -9 -221 0
-220 9 221 0
220 -9 221 0
220 9 -221 0
-221 -10 -222 0
-221 10 222 0
221 -10 222 0
221 10 -222 0
-16 -17 -223 0
-16 17 223 0
16 -17 223 0
16 17 -223 0
-223 -18 -224 0
-223 18 224 0
223 -18 224 0
223 18 -224 0
-224 -19 -225 0
-224 19 225 0
224 -19 225 0
224 19 -225 0
-225 -20 -226 0
-225 20 226 0
225 -20 226 0
225 20 -226 0
-226 -36 -227 0
-226 36 227 0
226 -36 227 0
226 36 -227 0
-227 -37 -228 0
-227 37 228 0
227 -37 228 0
227 37 -228 0
-228 -38 -229 0
-228 38 229 0
228 -38 229 0
228 38 -229 0
-229 -39 -230 0
-229 39 230 0
229 -39 230 0
229 39 -230 0
-230 -40 -231 0
-230 40 231 0
230 -40 231 0
230 40 -231 0
222 231 0
-11 -13 -232 0
-11 13 232 0
11 -13 232 0
11 13 -232 0
-31 -33 -233 0
-31 33 233 0
31 -33 233 0
31 33 -233 0
232 233 0
-1 -2 -234 0
-1 2 234 0
1 -2 234 0
1 2 -234 0
-234 -4 -235 0
-234 4 235 0
234 -4 235 0
234 4 -235 0
-235 -7 -236 0
-235 7 236 0
235 -7 236 0
235 7 -236 0
-236 -11 -237 0
-236 11 237 0
236 -11 237 0
236 11 -237 0
-237 -12 -238 0
-237 12 238 0
237 -12 238 0
237 12 -238 0
-238 -14 -239 0
-238 14 239 0
238 -14 239 0
238 14 -239 0
-239 -17 -240 0
-239 17 240 0
239 -17 240 0
239 17 -240 0
-1 -2 -241 0
-1 2 241 0
1 -2 241 0
1 2 -241 0
-241 -4 -242 0
-241 4 242 0
241 -4 242 0
241 4 -242 0
-242 -7 -243 0
-242 7 243 0
242 -7 243 0
242 7 -243 0
-243 -31 -244 0
-243 31 244 0
243 -31 244 0
243 31 -244 0
-244 -32 -245 0
-244 32 245 0
244 -32 245 0
244 32 -245 0
-245 -34 -246 0
-245 34 246 0
245 -34 246 0
245 34 -246 0
-246 -37 -247 0
-246 37 247 0
246 -37 247 0
246 37 -247 0
240 247 0
-11 -13 -248 0
-11 13 248 0
11 -13 248 0
11 13 -248 0
-248 -14 -249 0
-248 14 249 0
248 -14 249 0
248 14 -249 0
-249 -17 -250 0
-249 17 250 0
249 -17 250 0
249 17 -250 0
-1 -3 -251 0
-1 3 251 0
1 -3 251 0
1 3 -251 0
-251 -4 -252 0
-251 4 252 0
251 -4 252 0
251 4 -252 0
-252 -7 -253 0
-252 7 253 0
252 -7 253 0
252 7 -253 0
-253 -31 -254 0
-253 31 254 0
253 -31 254 0
253 31 -254 0
-254 -33 -255 0
-254 33 255 0
254 -33 255 0
254 33 -255 0
-255 -34 -256 0
-255 34 256 0
255 -34 256 0
255 34 -256 0
-256 -37 -257 0
-256 37 257 0
256 -37 257 0
256 37 -257 0
250 257 0
-11 -15 -258 0
-11 15 258 0
11 -15 258 0
11 15 -258 0
-258 -17 -259 0
-258 17 259 0
258 -17 259 0
258 17 -259 0
-31 -35 -260 0
-31 35 260 0
31 -35 260 0
31 35 -260 0
-260 -37 -261 0
-260 37 261 0
260 -37 261 0
260 37 -261 0
259 261 0
-13 -15 -262 0
-13 15 262 0
13 -15 262 0
13 15 -262 0
-262 -17 -263 0
-262 17 263 0
262 -17 263 0
262 17 -263 0
-33 -35 -264 0
-33 35 264 0
33 -35 264 0
33 35 -264 0
-264 -37 -265 0
-264 37 265 0
264 -37 265 0
264 37 -265 0
263 265 0
-13 -14 -266 0
-13 14 266 0
13 -14 266 0
13 14 -266 0
-266 -15 -267 0
-266 15 267 0
266 -15 267 0
266 15 -267 0
-267 -17 -268 0
-267 17 268 0
267 -17 268 0
267 17 -268 0
-3 -4 -269 0
-3 4 269 0
3 -4 269 0
3 4 -269 0
-269 -5 -270 0
-269 5 270 0
269 -5 270 0
269 5 -270 0
-270 -7 -271 0
-270 7 271 0
270 -7 271 0
270 7 -271 0
-271 -23 -272 0
-271 23 272 0
271 -23 272 0
271 23 -272 0
-272 -24 -273 0
-272 24 273 0
272 -24 273 0
272 24 -273 0
-273 -25 -274 0
-273 25 274 0
273 -25 274 0
273 25 -274 0
-274 -27 -275 0
-274 27 275 0
274 -27 275 0
274 27 -275 0
-275 -33 -276 0
-275 33 276 0
275 -33 276 0
275 33 -276 0
-276 -34 -277 0
-276 34 277 0
276 -34 277 0
276 34 -277 0
-277 -35 -278 0
-277 35 278 0
277 -35 278 0
277 35 -278 0
-278 -37 -279 0
-278 37 279 0
278 -37 279 0
278 37 -279 0
268 279 0
-1 -2 -280 0
-1 2 280 0
1 -2 280 0
1 2 -280 0
-280 -5 -281 0
-280 5 281 0
280 -5 281 0
280 5 -281 0
-281 -6 -282 0
-281 6 282 0
281 -6 282 0
281 6 -282 0
-282 -7 -283 0
-282 7 283 0
282 -7 283 0
282 7 -283 0
-283 -11 -284 0
-283 11 284 0
283 -11 284 0
283 11 -284 0
-284 -12 -285 0
-284 12 285 0
284 -12 285 0
284 12 -285 0
-285 -15 -286 0
-285 15 286 0
285 -15 286 0
285 15 -286 0
-286 -16 -287 0
-286 16 287 0
286 -16 287 0
286 16 -287 0
-287 -17 -288 0
-287 17 288 0
287 -17 288 0
287 17 -288 0
-31 -32 -289 0
-31 32 289 0
31 -32 289 0
31 32 -289 0
-289 -35 -290 0
-289 35 290 0
289 -35 290 0
289 35 -290 0
-290 -36 -291 0
-290 36 291 0
290 -36 291 0
290 36 -291 0
-291 -37 -292 0
-291 37 292 0
291 -37 292 0
291 37 -292 0
288 292 0
-14 -18 -293 0
-14 18 293 0
14 -18 293 0
14 18 -293 0
-4 -8 -294 0
-4 8 294 0
4 -8 294 0
4 8 -294 0
-294 -24 -295 0
-294 24 295 0
294 -24 295 0
294 24 -295 0
-295 -28 -296 0
-295 28 296 0
295 -28 296 0
295 28 -296 0
293 296 0
-11 -15 -297 0
-11 15 297 0
11 -15 297 0
11 15 -297 0
-297 -18 -298 0
-297 18 298 0
297 -18 298 0
297 18 -298 0
-21 -25 -299 0
-21 25 299 0
21 -25 299 0
21 25 -299 0
-299 -28 -300 0
-299 28 300 0
299 -28 300 0
299 28 -300 0
298 300 0
-13 -14 -301 0
-13 14 301 0
13 -14 301 0
13 14 -301 0
-301 -15 -302 0
-301 15 302 0
301 -15 302 0
301 15 -302 0
-302 -18 -303 0
-302 18 303 0
302 -18 303 0
302 18 -303 0
-3 -4 -304 0
-3 4 304 0
3 -4 304 0
3 4 -304 0
-304 -5 -305 0
-304 5 305 0
304 -5 305 0
304 5 -305 0
-305 -8 -306 0
-305 8 306 0
305 -8 306 0
305 8 -306 0
-306 -23 -307 0
-306 23 307 0
306 -23 307 0
306 23 -307 0
-307 -24 -308 0
-307 24 308 0
307 -24 308 0
307 24 -308 0
-308 -25 -309 0
-308 25 309 0
308 -25 309 0
308 25 -309 0
-309 -28 -310 0
-309 28 310 0
309 -28 310 0
309 28 -310 0
-310 -33 -311 0
-310 33 311 0
310 -33 311 0
310 33 -311 0
-311 -34 -312 0
-311 34 312 0
311 -34 312 0
311 34 -312 0
-312 -35 -313 0
-312 35 313 0
312 -35 313 0
312 35 -313 0
-313 -38 -314 0
-313 38 314 0
313 -38 314 0
313 38 -314 0
303 314 0
-1 -2 -315 0
-1 2 315 0
1 -2 315 0
1 2 -315 0
-315 -3 -316 0
-315 3 316 0
315 -3 316 0
315 3 -316 0
-316 -4 -317 0
-316 4 317 0
316 -4 317 0
316 4 -317 0
-317 -5 -318 0
-317 5 318 0
317 -5 318 0
317 5 -318 0
-318 -6 -319 0
-318 6 319 0
318 -6 319 0
318 6 -319 0
-319 -8 -320 0
-319 8 320 0
319 -8 320 0
319 8 -320 0
-320 -11 -321 0
-320 11 321 0
320 -11 321 0
320 11 -321 0
-321 -12 -322 0
-321 12 322 0
321 -12 322 0
321 12 -322 0
-322 -13 -323 0
-322 13 323 0
322 -13 323 0
322 13 -323 0
-323 -14 -324 0
-323 14 324 0
323 -14 324 0
323 14 -324 0
-324 -15 -325 0
-324 15 325 0
324 -15 325 0
324 15 -325 0
-325 -16 -326 0
-325 16 326 0
325 -16 326 0
325 16 -326 0
-326 -18 -327 0
-326 18 327 0
326 -18 327 0
326 18 -327 0
-1 -2 -328 0
-1 2 328 0
1 -2 328 0
1 2 -328 0
-328 -3 -329 0
-328 3 329 0
328 -3 329 0
328 3 -329 0
-329 -4 -330 0
-329 4 330 0
329 -4 330 0
329 4 -330 0
-330 -5 -331 0
-330 5 331 0
330 -5 331 0
330 5 -331 0
-331 -6 -332 0
-331 6 332 0
331 -6 332 0
331 6 -332 0
-332 -8 -333 0
-332 8 333 0
332 -8 333 0
332 8 -333 0
-333 -31 -334 0
-333 31 334 0
333 -31 334 0
333 31 -334 0
-334 -32 -335 0
-334 32 335 0
334 -32 335 0
334 32 -335 0
-335 -33 -336 0
-335 33 336 0
335 -33 336 0
335 33 -336 0
-336 -34 -337 0
-336 34 337 0
336 -34 337 0
336 34 -337 0
-337 -35 -338 0
-337 35 338 0
337 -35 338 0
337 35 -338 0
-338 -36 -339 0
-338 36 339 0
338 -36 339 0
338 36 -339 0
-339 -38 -340 0
-339 38 340 0
339 -38 340 0
339 38 -340 0
327 340 0
-17 -18 -341 0
-17 18 341 0
17 -18 341 0
17 18 -341 0
-7 -8 -342 0
-7 8 342 0
7 -8 342 0
7 8 -342 0
-342 -27 -343 0
-342 27 343 0
342 -27 343 0
342 27 -343 0
-343 -28 -344 0
-343 28 344 0
343 -28 344 0
343 28 -344 0
-344 -37 -345 0
-344 37 345 0
344 -37 345 0
344 37 -345 0
-345 -38 -346 0
-345 38 346 0
345 -38 346 0
345 38 -346 0
341 346 0
-3 -4 -347 0
-3 4 347 0
3 -4 347 0
3 4 -347 0
-347 -7 -348 0
-347 7 348 0
347 -7 348 0
347 7 -348 0
-348 -8 -349 0
-348 8 349 0
348 -8 349 0
348 8 -349 0
-349 -13 -350 0
-349 13 350 0
349 -13 350 0
349 13 -350 0
-350 -14 -351 0
-350 14 351 0
350 -14 351 0
350 14 -351 0
-351 -17 -352 0
-351 17 352 0
351 -17 352 0
351 17 -352 0
-352 -18 -353 0
-352 18 353 0
352 -18 353 0
352 18 -353 0
-3 -4 -354 0
-3 4 354 0
3 -4 354 0
3 4 -354 0
-354 -7 -355 0
-354 7 355 0
354 -7 355 0
354 7 -355 0
-355 -8 -356 0
-355 8 356 0
355 -8 356 0
355 8 -356 0
-356 -23 -357 0
-356 23 357 0
356 -23 357 0
356 23 -357 0
-357 -24 -358 0
-357 24 358 0
357 -24 358 0
357 24 -358 0
-358 -27 -359 0
-358 27 359 0
358 -27 359 0
358 27 -359 0
-359 -28 -360 0
-359 28 360 0
359 -28 360 0
359 28 -360 0
-360 -33 -361 0
-360 33 361 0
360 -33 361 0
360 33 -361 0
-361 -34 -362 0
-361 34 362 0
361 -34 362 0
361 34 -362 0
-362 -37 -363 0
-362 37 363 0
362 -37 363 0
362 37 -363 0
-363 -38 -364 0
-363 38 364 0
363 -38 364 0
363 38 -364 0
353 364 0
-11 -13 -365 0
-11 13 365 0
11 -13 365 0
11 13 -365 0
-365 -14 -366 0
-365 14 366 0
365 -14 366 0
365 14 -366 0
-366 -17 -367 0
-366 17 367 0
366 -17 367 0
366 17 -367 0
-367 -18 -368 0
-367 18 368 0
367 -18 368 0
367 18 -368 0
-21 -23 -369 0
-21 23 369 0
21 -23 369 0
21 23 -369 0
-369 -24 -370 0
-369 24 370 0
369 -24 370 0
369 24 -370 0
-370 -27 -371 0
-370 27 371 0
370 -27 371 0
370 27 -371 0
-371 -28 -372 0
-371 28 372 0
371 -28 372 0
371 28 -372 0
-372 -31 -373 0
-372 31 373 0
372 -31 373 0
372 31 -373 0
-373 -33 -374 0
-373 33 374 0
373 -33 374 0
373 33 -374 0
-374 -34 -375 0
-374 34 375 0
374 -34 375 0
374 34 -375 0
-375 -37 -376 0
-375 37 376 0
375 -37 376 0
375 37 -376 0
-376 -38 -377 0
-376 38 377 0
376 -38 377 0
376 38 -377 0
368 377 0
-3 -5 -378 0
-3 5 378 0
3 -5 378 0
3 5 -378 0
-378 -6 -379 0
-378 6 379 0
378 -6 379 0
378 6 -379 0
-379 -7 -380 0
-379 7 380 0
379 -7 380 0
379 7 -380 0
-380 -8 -381 0
-380 8 381 0
380 -8 381 0
380 8 -381 0
-381 -13 -382 0
-381 13 382 0
381 -13 382 0
381 13 -382 0
-382 -15 -383 0
-382 15 383 0
382 -15 383 0
382 15 -383 0
-383 -16 -384 0
-383 16 384 0
383 -16 384 0
383 16 -384 0
-384 -17 -385 0
-384 17 385 0
384 -17 385 0
384 17 -385 0
-385 -18 -386 0
-385 18 386 0
385 -18 386 0
385 18 -386 0
-3 -5 -387 0
-3 5 387 0
3 -5 387 0
3 5 -387 0
-387 -6 -388 0
-387 6 388 0
387 -6 388 0
387 6 -388 0
-388 -7 -389 0
-388 7 389 0
388 -7 389 0
388 7 -389 0
-389 -8 -390 0
-389 8 390 0
389 -8 390 0
389 8 -390 0
-390 -33 -391 0
-390 33 391 0
390 -33 391 0
390 33 -391 0
-391 -35 -392 0
-391 35 392 0
391 -35 392 0
391 35 -392 0
-392 -36 -393 0
-392 36 393 0
392 -36 393 0
392 36 -393 0
-393 -37 -394 0
-393 37 394 0
393 -37 394 0
393 37 -394 0
-394 -38 -395 0
-394 38 395 0
394 -38 395 0
394 38 -395 0
386 395 0
-1 -2 -396 0
-1 2 396 0
1 -2 396 0
1 2 -396 0
-396 -4 -397 0
-396 4 397 0
396 -4 397 0
396 4 -397 0
-397 -9 -398 0
-397 9 398 0
397 -9 398 0
397 9 -398 0
-398 -11 -399 0
-398 11 399 0
398 -11 399 0
398 11 -399 0
-399 -12 -400 0
-399 12 400 0
399 -12 400 0
399 12 -400 0
-400 -14 -401 0
-400 14 401 0
400 -14 401 0
400 14 -401 0
-401 -19 -402 0
-401 19 402 0
401 -19 402 0
401 19 -402 0
-1 -2 -403 0
-1 2 403 0
1 -2 403 0
1 2 -403 0
-403 -4 -404 0
-403 4 404 0
403 -4 404 0
403 4 -404 0
-404 -9 -405 0
-404 9 405 0
404 -9 405 0
404 9 -405 0
-405 -21 -406 0
-405 21 406 0
405 -21 406 0
405 21 -406 0
-406 -22 -407 0
-406 22 407 0
406 -22 407 0
406 22 -407 0
-407 -24 -408 0
-407 24 408 0
407 -24 408 0
407 24 -408 0
-408 -29 -409 0
-408 29 409 0
408 -29 409 0
408 29 -409 0
-409 -31 -410 0
-409 31 410 0
409 -31 410 0
409 31 -410 0
-410 -32 -411 0
-410 32 411 0
410 -32 411 0
410 32 -411 0
-411 -34 -412 0
-411 34 412 0
411 -34 412 0
411 34 -412 0
-412 -39 -413 0
-412 39 413 0
412 -39 413 0
412 39 -413 0
402 413 0
-1 -2 -414 0
-1 2 414 0
1 -2 414 0
1 2 -414 0
-414 -5 -415 0
-414 5 415 0
414 -5 415 0
414 5 -415 0
-415 -6 -416 0
-415 6 416 0
415 -6 416 0
415 6 -416 0
-416 -9 -417 0
-416 9 417 0
416 -9 417 0
416 9 -417 0
-417 -11 -418 0
-417 11 418 0
417 -11 418 0
417 11 -418 0
-418 -12 -419 0
-418 12 419 0
418 -12 419 0
418 12 -419 0
-419 -15 -420 0
-419 15 420 0
419 -15 420 0
419 15 -420 0
-420 -16 -421 0
-420 16 421 0
420 -16 421 0
420 16 -421 0
-421 -19 -422 0
-421 19 422 0
421 -19 422 0
421 19 -422 0
-31 -32 -423 0
-31 32 423 0
31 -32 423 0
31 32 -423 0
-423 -35 -424 0
-423 35 424 0
423 -35 424 0
423 35 -424 0
-424 -36 -425 0
-424 36 425 0
424 -36 425 0
424 36 -425 0
-425 -39 -426 0
-425 39 426 0
425 -39 426 0
425 39 -426 0
422 426 0
-7 -9 -427 0
-7 9 427 0
7 -9 427 0
7 9 -427 0
-427 -17 -428 0
-427 17 428 0
427 -17 428 0
427 17 -428 0
-428 -19 -429 0
-428 19 429 0
428 -19 429 0
428 19 -429 0
-37 -39 -430 0
-37 39 430 0
37 -39 430 0
37 39 -430 0
429 430 0
-1 -2 -431 0
-1 2 431 0
1 -2 431 0
1 2 -431 0
-431 -4 -432 0
-431 4 432 0
431 -4 432 0
431 4 -432 0
-432 -8 -433 0
-432 8 433 0
432 -8 433 0
432 8 -433 0
-433 -9 -434 0
-433 9 434 0
433 -9 434 0
433 9 -434 0
-434 -11 -435 0
-434 11 435 0
434 -11 435 0
434 11 -435 0
-435 -12 -436 0
-435 12 436 0
435 -12 436 0
435 12 -436 0
-436 -14 -437 0
-436 14 437 0
436 -14 437 0
436 14 -437 0
-437 -18 -438 0
-437 18 438 0
437 -18 438 0
437 18 -438 0
-438 -19 -439 0
-438 19 439 0
438 -19 439 0
438 19 -439 0
-21 -22 -440 0
-21 22 440 0
21 -22 440 0
21 22 -440 0
-440 -24 -441 0
-440 24 441 0
440 -24 441 0
440 24 -441 0
-441 -28 -442 0
-441 28 442 0
441 -28 442 0
441 28 -442 0
-442 -29 -443 0
-442 29 443 0
442 -29 443 0
442 29 -443 0
439 443 0
-7 -8 -444 0
-7 8 444 0
7 -8 444 0
7 8 -444 0
-444 -9 -445 0
-444 9 445 0
444 -9 445 0
444 9 -445 0
-445 -17 -446 0
-445 17 446 0
445 -17 446 0
445 17 -446 0
-446 -18 -447 0
-446 18 447 0
446 -18 447 0
446 18 -447 0
-447 -19 -448 0
-447 19 448 0
447 -19 448 0
447 19 -448 0
-27 -28 -449 0
-27 28 449 0
27 -28 449 0
27 28 -449 0
-449 -29 -450 0
-449 29 450 0
449 -29 450 0
449 29 -450 0
-450 -37 -451 0
-450 37 451 0
450 -37 451 0
450 37 -451 0
-451 -38 -452 0
-451 38 452 0
451 -38 452 0
451 38 -452 0
-452 -39 -453 0
-452 39 453 0
452 -39 453 0
452 39 -453 0
448 453 0
-1 -2 -454 0
-1 2 454 0
1 -2 454 0
1 2 -454 0
-454 -3 -455 0
-454 3 455 0
454 -3 455 0
454 3 -455 0
-455 -7 -456 0
-455 7 456 0
455 -7 456 0
455 7 -456 0
-456 -8 -457 0
-456 8 457 0
456 -8 457 0
456 8 -457 0
-457 -9 -458 0
-457 9 458 0
457 -9 458 0
457 9 -458 0
-458 -11 -459 0
-458 11 459 0
458 -11 459 0
458 11 -459 0
-459 -12 -460 0
-459 12 460 0
459 -12 460 0
459 12 -460 0
-460 -13 -461 0
-460 13 461 0
460 -13 461 0
460 13 -461 0
-461 -17 -462 0
-461 17 462 0
461 -17 462 0
461 17 -462 0
-462 -18 -463 0
-462 18 463 0
462 -18 463 0
462 18 -463 0
-463 -19 -464 0
-463 19 464 0
463 -19 464 0
463 19 -464 0
-1 -2 -465 0
-1 2 465 0
1 -2 465 0
1 2 -465 0
-465 -3 -466 0
-465 3 466 0
465 -3 466 0
465 3 -466 0
-466 -7 -467 0
-466 7 467 0
466 -7 467 0
466 7 -467 0
-467 -8 -468 0
-467 8 468 0
467 -8 468 0
467 8 -468 0
-468 -9 -469 0
-468 9 469 0
468 -9 469 0
468 9 -469 0
-469 -21 -470 0
-469 21 470 0
469 -21 470 0
469 21 -470 0
-470 -22 -471 0
-470 22 471 0
470 -22 471 0
470 22 -471 0
-471 -23 -472 0
-471 23 472 0
471 -23 472 0
471 23 -472 0
-472 -27 -473 0
-472 27 473 0
472 -27 473 0
472 27 -473 0
-473 -28 -474 0
-473 28 474 0
473 -28 474 0
473 28 -474 0
-474 -29 -475 0
-474 29 475 0
474 -29 475 0
474 29 -475 0
-475 -31 -476 0
-475 31 476 0
475 -31 476 0
475 31 -476 0
-476 -32 -477 0
-476 32 477 0
476 -32 477 0
476 32 -477 0
-477 -33 -478 0
-477 33 478 0
477 -33 478 0
477 33 -478 0
-478 -37 -479 0
-478 37 479 0
478 -37 479 0
478 37 -479 0
-479 -38 -480 0
-479 38 480 0
479 -38 480 0
479 38 -480 0
-480 -39 -481 0
-480 39 481 0
480 -39 481 0
480 39 -481 0
464 481 0
-1 -2 -482 0
-1 2 482 0
1 -2 482 0
1 2 -482 0
-482 -3 -483 0
-482 3 483 0
482 -3 483 0
482 3 -483 0
-483 -4 -484 0
-483 4 484 0
483 -4 484 0
483 4 -484 0
-484 -5 -485 0
-484 5 485 0
484 -5 485 0
484 5 -485 0
-485 -6 -486 0
-485 6 486 0
485 -6 486 0
485 6 -486 0
-486 -7 -487 0
-486 7 487 0
486 -7 487 0
486 7 -487 0
-487 -8 -488 0
-487 8 488 0
487 -8 488 0
487 8 -488 0
-488 -9 -489 0
-488 9 489 0
488 -9 489 0
488 9 -489 0
-489 -11 -490 0
-489 11 490 0
489 -11 490 0
489 11 -490 0
-490 -12 -491 0
-490 12 491 0
490 -12 491 0
490 12 -491 0
-491 -13 -492 0
-491 13 492 0
491 -13 492 0
491 13 -492 0
-492 -14 -493 0
-492 14 493 0
492 -14 493 0
492 14 -493 0
-493 -15 -494 0
-493 15 494 0
493 -15 494 0
493 15 -494 0
-494 -16 -495 0
-494 16 495 0
494 -16 495 0
494 16 -495 0
-495 -17 -496 0
-495 17 496 0
495 -17 496 0
495 17 -496 0
-496 -18 -497 0
-496 18 497 0
496 -18 497 0
496 18 -497 0
-497 -19 -498 0
-497 19 498 0
497 -19 498 0
497 19 -498 0
-1 -2 -499 0
-1 2 499 0
1 -2 499 0
1 2 -499 0
-499 -3 -500 0
-499 3 500 0
499 -3 500 0
499 3 -500 0
-500 -4 -501 0
-500 4 501 0
500 -4 501 0
500 4 -501 0
-501 -5 -502 0
-501 5 502 0
501 -5 502 0
501 5 -502 0
-502 -6 -503 0
-502 6 503 0
502 -6 503 0
502 6 -503 0
-503 -7 -504 0
-503 7 504 0
503 -7 504 0
503 7 -504 0
-504 -8 -505 0
-504 8 505 0
504 -8 505 0
504 8 -505 0
-505 -9 -506 0
-505 9 506 0
505 -9 506 0
505 9 -506 0
-506 -21 -507 0
-506 21 507 0
506 -21 507 0
506 21 -507 0
-507 -22 -508 0
-507 22 508 0
507 -22 508 0
507 22 -508 0
-508 -23 -509 0
-508 23 509 0
508 -23 509 0
508 23 -509 0
-509 -24 -510 0
-509 24 510 0
509 -24 510 0
509 24 -510 0
-510 -25 -511 0
-510 25 511 0
510 -25 511 0
510 25 -511 0
-511 -26 -512 0
-511 26 512 0
511 -26 512 0
511 26 -512 0
-512 -27 -513 0
-512 27 513 0
512 -27 513 0
512 27 -513 0
-513 -28 -514 0
-513 28 514 0
513 -28 514 0
513 28 -514 0
-514 -29 -515 0
-514 29 515 0
514 -29 515 0
514 29 -515 0
498 515 0
-10 -20 -516 0
-10 20 516 0
10 -20 516 0
10 20 -516 0
-517 30 0
517 -30 0
516 517 0
-1 -2 -518 0
-1 2 518 0
1 -2 518 0
1 2 -518 0
-518 -3 -519 0
-518 3 519 0
518 -3 519 0
518 3 -519 0
-519 -10 -520 0
-519 10 520 0
519 -10 520 0
519 10 -520 0
-520 -11 -521 0
-520 11 521 0
520 -11 521 0
520 11 -521 0
-521 -12 -522 0
-521 12 522 0
521 -12 522 0
521 12 -522 0
-522 -13 -523 0
-522 13 523 0
522 -13 523 0
522 13 -523 0
-523 -20 -524 0
-523 20 524 0
523 -20 524 0
523 20 -524 0
-1 -2 -525 0
-1 2 525 0
1 -2 525 0
1 2 -525 0
-525 -3 -526 0
-525 3 526 0
525 -3 526 0
525 3 -526 0
-526 -10 -527 0
-526 10 527 0
526 -10 527 0
526 10 -527 0
-527 -21 -528 0
-527 21 528 0
527 -21 528 0
527 21 -528 0
-528 -22 -529 0
-528 22 529 0
528 -22 529 0
528 22 -529 0
-529 -23 -530 0
-529 23 530 0
529 -23 530 0
529 23 -530 0
-530 -30 -531 0
-530 30 531 0
530 -30 531 0
530 30 -531 0
-531 -31 -532 0
-531 31 532 0
531 -31 532 0
531 31 -532 0
-532 -32 -533 0
-532 32 533 0
532 -32 533 0
532 32 -533 0
-533 -33 -534 0
-533 33 534 0
533 -33 534 0
533 33 -534 0
-534 -40 -535 0
-534 40 535 0
534 -40 535 0
534 40 -535 0
524 535 0
-11 -14 -536 0
-11 14 536 0
11 -14 536 0
11 14 -536 0
-536 -20 -537 0
-536 20 537 0
536 -20 537 0
536 20 -537 0
-21 -24 -538 0
-21 24 538 0
21 -24 538 0
21 24 -538 0
-538 -30 -539 0
-538 30 539 0
538 -30 539 0
538 30 -539 0
537 539 0
-13 -14 -540 0
-13 14 540 0
13 -14 540 0
13 14 -540 0
-540 -20 -541 0
-540 20 541 0
540 -20 541 0
540 20 -541 0
-23 -24 -542 0
-23 24 542 0
23 -24 542 0
23 24 -542 0
-542 -30 -543 0
-542 30 543 0
542 -30 543 0
542 30 -543 0
-543 -33 -544 0
-543 33 544 0
543 -33 544 0
543 33 -544 0
-544 -34 -545 0
-544 34 545 0
544 -34 545 0
544 34 -545 0
-545 -40 -546 0
-545 40 546 0
545 -40 546 0
545 40 -546 0
541 546 0
-11 -13 -547 0
-11 13 547 0
11 -13 547 0
11 13 -547 0
-547 -14 -548 0
-547 14 548 0
547 -14 548 0
547 14 -548 0
-548 -15 -549 0
-548 15 549 0
548 -15 549 0
548 15 -549 0
-549 -17 -550 0
-549 17 550 0
549 -17 550 0
549 17 -550 0
-550 -20 -551 0
-550 20 551 0
550 -20 551 0
550 20 -551 0
-1 -3 -552 0
-1 3 552 0
1 -3 552 0
1 3 -552 0
-552 -4 -553 0
-552 4 553 0
552 -4 553 0
552 4 -553 0
-553 -5 -554 0
-553 5 554 0
553 -5 554 0
553 5 -554 0
-554 -7 -555 0
-554 7 555 0
554 -7 555 0
554 7 -555 0
-555 -10 -556 0
-555 10 556 0
555 -10 556 0
555 10 -556 0
-556 -21 -557 0
-556 21 557 0
556 -21 557 0
556 21 -557 0
-557 -23 -558 0
-557 23 558 0
557 -23 558 0
557 23 -558 0
-558 -24 -559 0
-558 24 559 0
558 -24 559 0
558 24 -559 0
-559 -25 -560 0
-559 25 560 0
559 -25 560 0
559 25 -560 0
-560 -27 -561 0
-560 27 561 0
560 -27 561 0
560 27 -561 0
-561 -30 -562 0
-561 30 562 0
561 -30 562 0
561 30 -562 0
551 562 0
-1 -2 -563 0
-1 2 563 0
1 -2 563 0
1 2 -563 0
-563 -3 -564 0
-563 3 564 0
563 -3 564 0
563 3 -564 0
-564 -8 -565 0
-564 8 565 0
564 -8 565 0
564 8 -565 0
-565 -10 -566 0
-565 10 566 0
565 -10 566 0
565 10 -566 0
-566 -11 -567 0
-566 11 567 0
566 -11 567 0
566 11 -567 0
-567 -12 -568 0
-567 12 568 0
567 -12 568 0
567 12 -568 0
-568 -13 -569 0
-568 13 569 0
568 -13 569 0
568 13 -569 0
-569 -18 -570 0
-569 18 570 0
569 -18 570 0
569 18 -570 0
-570 -20 -571 0
-570 20 571 0
570 -20 571 0
570 20 -571 0
-1 -2 -572 0
-1 2 572 0
1 -2 572 0
1 2 -572 0
-572 -3 -573 0
-572 3 573 0
572 -3 573 0
572 3 -573 0
-573 -8 -574 0
-573 8 574 0
573 -8 574 0
573 8 -574 0
-574 -10 -575 0
-574 10 575 0
574 -10 575 0
574 10 -575 0
-575 -21 -576 0
-575 21 576 0
575 -21 576 0
575 21 -576 0
-576 -22 -577 0
-576 22 577 0
576 -22 577 0
576 22 -577 0
-577 -23 -578 0
-577 23 578 0
577 -23 578 0
577 23 -578 0
-578 -28 -579 0
-578 28 579 0
578 -28 579 0
578 28 -579 0
-579 -30 -580 0
-579 30 580 0
579 -30 580 0
579 30 -580 0
571 580 0
-14 -15 -581 0
-14 15 581 0
14 -15 581 0
14 15 -581 0
-581 -18 -582 0
-581 18 582 0
581 -18 582 0
581 18 -582 0
-582 -20 -583 0
-582 20 583 0
582 -20 583 0
582 20 -583 0
-24 -25 -584 0
-24 25 584 0
24 -25 584 0
24 25 -584 0
-584 -28 -585 0
-584 28 585 0
584 -28 585 0
584 28 -585 0
-585 -30 -586 0
-585 30 586 0
585 -30 586 0
585 30 -586 0
583 586 0
-11 -13 -587 0
-11 13 587 0
11 -13 587 0
11 13 -587 0
-587 -14 -588 0
-587 14 588 0
587 -14 588 0
587 14 -588 0
-588 -15 -589 0
-588 15 589 0
588 -15 589 0
588 15 -589 0
-589 -18 -590 0
-589 18 590 0
589 -18 590 0
589 18 -590 0
-590 -20 -591 0
-590 20 591 0
590 -20 591 0
590 20 -591 0
-1 -3 -592 0
-1 3 592 0
1 -3 592 0
1 3 -592 0
-592 -4 -593 0
-592 4 593 0
592 -4 593 0
592 4 -593 0
-593 -5 -594 0
-593 5 594 0
593 -5 594 0
593 5 -594 0
-594 -8 -595 0
-594 8 595 0
594 -8 595 0
594 8 -595 0
-595 -10 -596 0
-595 10 596 0
595 -10 596 0
595 10 -596 0
-596 -31 -597 0
-596 31 597 0
596 -31 597 0
596 31 -597 0
-597 -33 -598 0
-597 33 598 0
597 -33 598 0
597 33 -598 0
-598 -34 -599 0
-598 34 599 0
598 -34 599 0
598 34 -599 0
-599 -35 -600 0
-599 35 600 0
599 -35 600 0
599 35 -600 0
-600 -38 -601 0
-600 38 601 0
600 -38 601 0
600 38 -601 0
-601 -40 -602 0
-601 40 602 0
601 -40 602 0
601 40 -602 0
591 602 0
-11 -17 -603 0
-11 17 603 0
11 -17 603 0
11 17 -603 0
-603 -18 -604 0
-603 18 604 0
603 -18 604 0
603 18 -604 0
-604 -20 -605 0
-604 20 605 0
604 -20 605 0
604 20 -605 0
-21 -27 -606 0
-21 27 606 0
21 -27 606 0
21 27 -606 0
-606 -28 -607 0
-606 28 607 0
606 -28 607 0
606 28 -607 0
-607 -30 -608 0
-607 30 608 0
607 -30 608 0
607 30 -608 0
-608 -31 -609 0
-608 31 609 0
608 -31 609 0
608 31 -609 0
-609 -37 -610 0
-609 37 610 0
609 -37 610 0
609 37 -610 0
-610 -38 -611 0
-610 38 611 0
610 -38 611 0
610 38 -611 0
-611 -40 -612 0
-611 40 612 0
611 -40 612 0
611 40 -612 0
605 612 0
-1 -2 -613 0
-1 2 613 0
1 -2 613 0
1 2 -613 0
-613 -4 -614 0
-613 4 614 0
613 -4 614 0
613 4 -614 0
-614 -7 -615 0
-614 7 615 0
614 -7 615 0
614 7 -615 0
-615 -8 -616 0
-615 8 616 0
615 -8 616 0
615 8 -616 0
-616 -10 -617 0
-616 10 617 0
616 -10 617 0
616 10 -617 0
-617 -11 -618 0
-617 11 618 0
617 -11 618 0
617 11 -618 0
-618 -12 -619 0
-618 12 619 0
618 -12 619 0
618 12 -619 0
-619 -14 -620 0
-619 14 620 0
619 -14 620 0
619 14 -620 0
-620 -17 -621 0
-620 17 621 0
620 -17 621 0
620 17 -621 0
-621 -18 -622 0
-621 18 622 0
621 -18 622 0
621 18 -622 0
-622 -20 -623 0
-622 20 623 0
622 -20 623 0
622 20 -623 0
-1 -2 -624 0
-1 2 624 0
1 -2 624 0
1 2 -624 0
-624 -4 -625 0
-624 4 625 0
624 -4 625 0
624 4 -625 0
-625 -7 -626 0
-625 7 626 0
625 -7 626 0
625 7 -626 0
-626 -8 -627 0
-626 8 627 0
626 -8 627 0
626 8 -627 0
-627 -10 -628 0
-627 10 628 0
627 -10 628 0
627 10 -628 0
-628 -21 -629 0
-628 21 629 0
628 -21 629 0
628 21 -629 0
-629 -22 -630 0
-629 22 630 0
629 -22 630 0
629 22 -630 0
-630 -24 -631 0
-630 24 631 0
630 -24 631 0
630 24 -631 0
-631 -27 -632 0
-631 27 632 0
631 -27 632 0
631 27 -632 0
-632 -28 -633 0
-632 28 633 0
632 -28 633 0
632 28 -633 0
-633 -30 -634 0
-633 30 634 0
633 -30 634 0
633 30 -634 0
-634 -31 -635 0
-634 31 635 0
634 -31 635 0
634 31 -635 0
-635 -32 -636 0
-635 32 636 0
635 -32 636 0
635 32 -636 0
-636 -34 -637 0
-636 34 637 0
636 -34 637 0
636 34 -637 0
-637 -37 -638 0
-637 37 638 0
637 -37 638 0
637 37 -638 0
-638 -38 -639 0
-638 38 639 0
638 -38 639 0
638 38 -639 0
-639 -40 -640 0
-639 40 640 0
639 -40 640 0
639 40 -640 0
623 640 0
-15 -17 -641 0
-15 17 641 0
15 -17 641 0
15 17 -641 0
-641 -18 -642 0
-641 18 642 0
641 -18 642 0
641 18 -642 0
-642 -20 -643 0
-642 20 643 0
642 -20 643 0
642 20 -643 0
-5 -7 -644 0
-5 7 644 0
5 -7 644 0
5 7 -644 0
-644 -8 -645 0
-644 8 645 0
644 -8 645 0
644 8 -645 0
-645 -10 -646 0
-645 10 646 0
645 -10 646 0
645 10 -646 0
-646 -35 -647 0
-646 35 647 0
646 -35 647 0
646 35 -647 0
-647 -37 -648 0
-647 37 648 0
647 -37 648 0
647 37 -648 0
-648 -38 -649 0
-648 38 649 0
648 -38 649 0
648 38 -649 0
-649 -40 -650 0
-649 40 650 0
649 -40 650 0
649 40 -650 0
643 650 0
-11 -13 -651 0
-11 13 651 0
11 -13 651 0
11 13 -651 0
-651 -15 -652 0
-651 15 652 0
651 -15 652 0
651 15 -652 0
-652 -17 -653 0
-652 17 653 0
652 -17 653 0
652 17 -653 0
-653 -18 -654 0
-653 18 654 0
653 -18 654 0
653 18 -654 0
-654 -20 -655 0
-654 20 655 0
654 -20 655 0
654 20 -655 0
-1 -3 -656 0
-1 3 656 0
1 -3 656 0
1 3 -656 0
-656 -5 -657 0
-656 5 657 0
656 -5 657 0
656 5 -657 0
-657 -7 -658 0
-657 7 658 0
657 -7 658 0
657 7 -658 0
-658 -8 -659 0
-658 8 659 0
658 -8 659 0
658 8 -659 0
-659 -10 -660 0
-659 10 660 0
659 -10 660 0
659 10 -660 0
-660 -21 -661 0
-660 21 661 0
660 -21 661 0
660 21 -661 0
-661 -23 -662 0
-661 23 662 0
661 -23 662 0
661 23 -662 0
-662 -25 -663 0
-662 25 663 0
662 -25 663 0
662 25 -663 0
-663 -27 -664 0
-663 27 664 0
663 -27 664 0
663 27 -664 0
-664 -28 -665 0
-664 28 665 0
664 -28 665 0
664 28 -665 0
-665 -30 -666 0
-665 30 666 0
665 -30 666 0
665 30 -666 0
655 666 0
-1 -2 -667 0
-1 2 667 0
1 -2 667 0
1 2 -667 0
-667 -5 -668 0
-667 5 668 0
667 -5 668 0
667 5 -668 0
-668 -6 -669 0
-668 6 669 0
668 -6 669 0
668 6 -669 0
-669 -7 -670 0
-669 7 670 0
669 -7 670 0
669 7 -670 0
-670 -8 -671 0
-670 8 671 0
670 -8 671 0
670 8 -671 0
-671 -10 -672 0
-671 10 672 0
671 -10 672 0
671 10 -672 0
-672 -11 -673 0
-672 11 673 0
672 -11 673 0
672 11 -673 0
-673 -12 -674 0
-673 12 674 0
673 -12 674 0
673 12 -674 0
-674 -15 -675 0
-674 15 675 0
674 -15 675 0
674 15 -675 0
-675 -16 -676 0
-675 16 676 0
675 -16 676 0
675 16 -676 0
-676 -17 -677 0
-676 17 677 0
676 -17 677 0
676 17 -677 0
-677 -18 -678 0
-677 18 678 0
677 -18 678 0
677 18 -678 0
-678 -20 -679 0
-678 20 679 0
678 -20 679 0
678 20 -679 0
-21 -22 -680 0
-21 22 680 0
21 -22 680 0
21 22 -680 0
-680 -25 -681 0
-680 25 681 0
680 -25 681 0
680 25 -681 0
-681 -26 -682 0
-681 26 682 0
681 -26 682 0
681 26 -682 0
-682 -27 -683 0
-682 27 683 0
682 -27 683 0
682 27 -683 0
-683 -28 -684 0
-683 28 684 0
683 -28 684 0
683 28 -684 0
-684 -30 -685 0
-684 30 685 0
684 -30 685 0
684 30 -685 0
-685 -31 -686 0
-685 31 686 0
685 -31 686 0
685 31 -686 0
-686 -32 -687 0
-686 32 687 0
686 -32 687 0
686 32 -687 0
-687 -35 -688 0
-687 35 688 0
687 -35 688 0
687 35 -688 0
-688 -36 -689 0
-688 36 689 0
688 -36 689 0
688 36 -689 0
-689 -37 -690 0
-689 37 690 0
689 -37 690 0
689 37 -690 0
-690 -38 -691 0
-690 38 691 0
690 -38 691 0
690 38 -691 0
-691 -40 -692 0
-691 40 692 0
691 -40 692 0
691 40 -692 0
679 692 0
-1 -2 -693 0
-1 2 693 0
1 -2 693 0
1 2 -693 0
-693 -4 -694 0
-693 4 694 0
693 -4 694 0
693 4 -694 0
-694 -9 -695 0
-694 9 695 0
694 -9 695 0
694 9 -695 0
-695 -10 -696 0
-695 10 696 0
695 -10 696 0
695 10 -696 0
-696 -11 -697 0
-696 11 697 0
696 -11 697 0
696 11 -697 0
-697 -12 -698 0
-697 12 698 0
697 -12 698 0
697 12 -698 0
-698 -14 -699 0
-698 14 699 0
698 -14 699 0
698 14 -699 0
-699 -19 -700 0
-699 19 700 0
699 -19 700 0
699 19 -700 0
-700 -20 -701 0
-700 20 701 0
700 -20 701 0
700 20 -701 0
-1 -2 -702 0
-1 2 702 0
1 -2 702 0
1 2 -702 0
-702 -4 -703 0
-702 4 703 0
702 -4 703 0
702 4 -703 0
-703 -9 -704 0
-703 9 704 0
703 -9 704 0
703 9 -704 0
-704 -10 -705 0
-704 10 705 0
704 -10 705 0
704 10 -705 0
-705 -31 -706 0
-705 31 706 0
705 -31 706 0
705 31 -706 0
-706 -32 -707 0
-706 32 707 0
706 -32 707 0
706 32 -707 0
-707 -34 -708 0
-707 34 708 0
707 -34 708 0
707 34 -708 0
-708 -39 -709 0
-708 39 709 0
708 -39 709 0
708 39 -709 0
-709 -40 -710 0
-709 40 710 0
709 -40 710 0
709 40 -710 0
701 710 0
-3 -4 -711 0
-3 4 711 0
3 -4 711 0
3 4 -711 0
-711 -9 -712 0
-711 9 712 0
711 -9 712 0
711 9 -712 0
-712 -10 -713 0
-712 10 713 0
712 -10 713 0
712 10 -713 0
-713 -13 -714 0
-713 13 714 0
713 -13 714 0
713 13 -714 0
-714 -14 -715 0
-714 14 715 0
714 -14 715 0
714 14 -715 0
-715 -19 -716 0
-715 19 716 0
715 -19 716 0
715 19 -716 0
-716 -20 -717 0
-716 20 717 0
716 -20 717 0
716 20 -717 0
-3 -4 -718 0
-3 4 718 0
3 -4 718 0
3 4 -718 0
-718 -9 -719 0
-718 9 719 0
718 -9 719 0
718 9 -719 0
-719 -10 -720 0
-719 10 720 0
719 -10 720 0
719 10 -720 0
-720 -23 -721 0
-720 23 721 0
720 -23 721 0
720 23 -721 0
-721 -24 -722 0
-721 24 722 0
721 -24 722 0
721 24 -722 0
-722 -29 -723 0
-722 29 723 0
722 -29 723 0
722 29 -723 0
-723 -30 -724 0
-723 30 724 0
723 -30 724 0
723 30 -724 0
-724 -33 -725 0
-724 33 725 0
724 -33 725 0
724 33 -725 0
-725 -34 -726 0
-725 34 726 0
725 -34 726 0
725 34 -726 0
-726 -39 -727 0
-726 39 727 0
726 -39 727 0
726 39 -727 0
-727 -40 -728 0
-727 40 728 0
727 -40 728 0
727 40 -728 0
717 728 0
-1 -2 -729 0
-1 2 729 0
1 -2 729 0
1 2 -729 0
-729 -5 -730 0
-729 5 730 0
729 -5 730 0
729 5 -730 0
-730 -6 -731 0
-730 6 731 0
730 -6 731 0
730 6 -731 0
-731 -9 -732 0
-731 9 732 0
731 -9 732 0
731 9 -732 0
-732 -10 -733 0
-732 10 733 0
732 -10 733 0
732 10 -733 0
-733 -11 -734 0
-733 11 734 0
733 -11 734 0
733 11 -734 0
-734 -12 -735 0
-734 12 735 0
734 -12 735 0
734 12 -735 0
-735 -15 -736 0
-735 15 736 0
735 -15 736 0
735 15 -736 0
-736 -16 -737 0
-736 16 737 0
736 -16 737 0
736 16 -737 0
-737 -19 -738 0
-737 19 738 0
737 -19 738 0
737 19 -738 0
-738 -20 -739 0
-738 20 739 0
738 -20 739 0
738 20 -739 0
-21 -22 -740 0
-21 22 740 0
21 -22 740 0
21 22 -740 0
-740 -25 -741 0
-740 25 741 0
740 -25 741 0
740 25 -741 0
-741 -26 -742 0
-741 26 742 0
741 -26 742 0
741 26 -742 0
-742 -29 -743 0
-742 29 743 0
742 -29 743 0
742 29 -743 0
-743 -30 -744 0
-743 30 744 0
743 -30 744 0
743 30 -744 0
-744 -31 -745 0
-744 31 745 0
744 -31 745 0
744 31 -745 0
-745 -32 -746 0
-745 32 746 0
745 -32 746 0
745 32 -746 0
-746 -35 -747 0
-746 35 747 0
746 -35 747 0
746 35 -747 0
-747 -36 -748 0
-747 36 748 0
747 -36 748 0
747 36 -748 0
-748 -39 -749 0
-748 39 749 0
748 -39 749 0
748 39 -749 0
-749 -40 -750 0
-749 40 750 0
749 -40 750 0
749 40 -750 0
739 750 0
-7 -9 -751 0
-7 9 751 0
7 -9 751 0
7 9 -751 0
-751 -10 -752 0
-751 10 752 0
751 -10 752 0
751 10 -752 0
-752 -17 -753 0
-752 17 753 0
752 -17 753 0
752 17 -753 0
-753 -19 -754 0
-753 19 754 0
753 -19 754 0
753 19 -754 0
-754 -20 -755 0
-754 20 755 0
754 -20 755 0
754 20 -755 0
-7 -9 -756 0
-7 9 756 0
7 -9 756 0
7 9 -756 0
-756 -10 -757 0
-756 10 757 0
756 -10 757 0
756 10 -757 0
-757 -37 -758 0
-757 37 758 0
757 -37 758 0
757 37 -758 0
-758 -39 -759 0
-758 39 759 0
758 -39 759 0
758 39 -759 0
-759 -40 -760 0
-759 40 760 0
759 -40 760 0
759 40 -760 0
755 760 0
-4 -5 -761 0
-4 5 761 0
4 -5 761 0
4 5 -761 0
-761 -6 -762 0
-761 6 762 0
761 -6 762 0
761 6 -762 0
-762 -7 -763 0
-762 7 763 0
762 -7 763 0
762 7 -763 0
-763 -9 -764 0
-763 9 764 0
763 -9 764 0
763 9 -764 0
-764 -10 -765 0
-764 10 765 0
764 -10 765 0
764 10 -765 0
-765 -14 -766 0
-765 14 766 0
765 -14 766 0
765 14 -766 0
-766 -15 -767 0
-766 15 767 0
766 -15 767 0
766 15 -767 0
-767 -16 -768 0
-767 16 768 0
767 -16 768 0
767 16 -768 0
-768 -17 -769 0
-768 17 769 0
768 -17 769 0
768 17 -769 0
-769 -19 -770 0
-769 19 770 0
769 -19 770 0
769 19 -770 0
-770 -20 -771 0
-770 20 771 0
770 -20 771 0
770 20 -771 0
-4 -5 -772 0
-4 5 772 0
4 -5 772 0
4 5 -772 0
-772 -6 -773 0
-772 6 773 0
772 -6 773 0
772 6 -773 0
-773 -7 -774 0
-773 7 774 0
773 -7 774 0
773 7 -774 0
-774 -9 -775 0
-774 9 775 0
774 -9 775 0
774 9 -775 0
-775 -10 -776 0
-775 10 776 0
775 -10 776 0
775 10 -776 0
-776 -24 -777 0
-776 24 777 0
776 -24 777 0
776 24 -777 0
-777 -25 -778 0
-777 25 778 0
777 -25 778 0
777 25 -778 0
-778 -26 -779 0
-778 26 779 0
778 -26 779 0
778 26 -779 0
-779 -27 -780 0
-779 27 780 0
779 -27 780 0
779 27 -780 0
-780 -29 -781 0
-780 29 781 0
780 -29 781 0
780 29 -781 0
-781 -30 -782 0
-781 30 782 0
781 -30 782 0
781 30 -782 0
771 782 0
-1 -2 -783 0
-1 2 783 0
1 -2 783 0
1 2 -783 0
-783 -4 -784 0
-783 4 784 0
783 -4 784 0
783 4 -784 0
-784 -8 -785 0
-784 8 785 0
784 -8 785 0
784 8 -785 0
-785 -9 -786 0
-785 9 786 0
785 -9 786 0
785 9 -786 0
-786 -10 -787 0
-786 10 787 0
786 -10 787 0
786 10 -787 0
-787 -11 -788 0
-787 11 788 0
787 -11 788 0
787 11 -788 0
-788 -12 -789 0
-788 12 789 0
788 -12 789 0
788 12 -789 0
-789 -14 -790 0
-789 14 790 0
789 -14 790 0
789 14 -790 0
-790 -18 -791 0
-790 18 791 0
790 -18 791 0
790 18 -791 0
-791 -19 -792 0
-791 19 792 0
791 -19 792 0
791 19 -792 0
-792 -20 -793 0
-792 20 793 0
792 -20 793 0
792 20 -793 0
-21 -22 -794 0
-21 22 794 0
21 -22 794 0
21 22 -794 0
-794 -24 -795 0
-794 24 795 0
794 -24 795 0
794 24 -795 0
-795 -28 -796 0
-795 28 796 0
795 -28 796 0
795 28 -796 0
-796 -29 -797 0
-796 29 797 0
796 -29 797 0
796 29 -797 0
-797 -30 -798 0
-797 30 798 0
797 -30 798 0
797 30 -798 0
793 798 0
-3 -5 -799 0
-3 5 799 0
3 -5 799 0
3 5 -799 0
-799 -6 -800 0
-799 6 800 0
799 -6 800 0
799 6 -800 0
-800 -8 -801 0
-800 8 801 0
800 -8 801 0
800 8 -801 0
-801 -9 -802 0
-801 9 802 0
801 -9 802 0
801 9 -802 0
-802 -10 -803 0
-802 10 803 0
802 -10 803 0
802 10 -803 0
-803 -13 -804 0
-803 13 804 0
803 -13 804 0
803 13 -804 0
-804 -15 -805 0
-804 15 805 0
804 -15 805 0
804 15 -805 0
-805 -16 -806 0
-805 16 806 0
805 -16 806 0
805 16 -806 0
-806 -18 -807 0
-806 18 807 0
806 -18 807 0
806 18 -807 0
-807 -19 -808 0
-807 19 808 0
807 -19 808 0
807 19 -808 0
-808 -20 -809 0
-808 20 809 0
808 -20 809 0
808 20 -809 0
-3 -5 -810 0
-3 5 810 0
3 -5 810 0
3 5 -810 0
-810 -6 -811 0
-810 6 811 0
810 -6 811 0
810 6 -811 0
-811 -8 -812 0
-811 8 812 0
811 -8 812 0
811 8 -812 0
-812 -9 -813 0
-812 9 813 0
812 -9 813 0
812 9 -813 0
-813 -10 -814 0
-813 10 814 0
813 -10 814 0
813 10 -814 0
-814 -33 -815 0
-814 33 815 0
814 -33 815 0
814 33 -815 0
-815 -35 -816 0
-815 35 816 0
815 -35 816 0
815 35 -816 0
-816 -36 -817 0
-816 36 817 0
816 -36 817 0
816 36 -817 0
-817 -38 -818 0
-817 38 818 0
817 -38 818 0
817 38 -818 0
-818 -39 -819 0
-818 39 819 0
818 -39 819 0
818 39 -819 0
-819 -40 -820 0
-819 40 820 0
819 -40 820 0
819 40 -820 0
809 820 0
-7 -8 -821 0
-7 8 821 0
7 -8 821 0
7 8 -821 0
-821 -9 -822 0
-821 9 822 0
821 -9 822 0
821 9 -822 0
-822 -10 -823 0
-822 10 823 0
822 -10 823 0
822 10 -823 0
-823 -17 -824 0
-823 17 824 0
823 -17 824 0
823 17 -824 0
-824 -18 -825 0
-824 18 825 0
824 -18 825 0
824 18 -825 0
-825 -19 -826 0
-825 19 826 0
825 -19 826 0
825 19 -826 0
-826 -20 -827 0
-826 20 827 0
826 -20 827 0
826 20 -827 0
-7 -8 -828 0
-7 8 828 0
7 -8 828 0
7 8 -828 0
-828 -9 -829 0
-828 9 829 0
828 -9 829 0
828 9 -829 0
-829 -10 -830 0
-829 10 830 0
829 -10 830 0
829 10 -830 0
-830 -27 -831 0
-830 27 831 0
830 -27 831 0
830 27 -831 0
-831 -28 -832 0
-831 28 832 0
831 -28 832 0
831 28 -832 0
-832 -29 -833 0
-832 29 833 0
832 -29 833 0
832 29 -833 0
-833 -30 -834 0
-833 30 834 0
833 -30 834 0
833 30 -834 0
-834 -37 -835 0
-834 37 835 0
834 -37 835 0
834 37 -835 0
-835 -38 -836 0
-835 38 836 0
835 -38 836 0
835 38 -836 0
-836 -39 -837 0
-836 39 837 0
836 -39 837 0
836 39 -837 0
-837 -40 -838 0
-837 40 838 0
837 -40 838 0
837 40 -838 0
827 838 0
-1 -2 -839 0
-1 2 839 0
1 -2 839 0
1 2 -839 0
-839 -3 -840 0
-839 3 840 0
839 -3 840 0
839 3 -840 0
-840 -4 -841 0
-840 4 841 0
840 -4 841 0
840 4 -841 0
-841 -5 -842 0
-841 5 842 0
841 -5 842 0
841 5 -842 0
-842 -6 -843 0
-842 6 843 0
842 -6 843 0
842 6 -843 0
-843 -7 -844 0
-843 7 844 0
843 -7 844 0
843 7 -844 0
-844 -8 -845 0
-844 8 845 0
844 -8 845 0
844 8 -845 0
-845 -9 -846 0
-845 9 846 0
845 -9 846 0
845 9 -846 0
-846 -10 -847 0
-846 10 847 0
846 -10 847 0
846 10 -847 0
-847 -11 -848 0
-847 11 848 0
847 -11 848 0
847 11 -848 0
-848 -12 -849 0
-848 12 849 0
848 -12 849 0
848 12 -849 0
-849 -13 -850 0
-849 13 850 0
849 -13 850 0
849 13 -850 0
-850 -14 -851 0
-850 14 851 0
850 -14 851 0
850 14 -851 0
-851 -15 -852 0
-851 15 852 0
851 -15 852 0
851 15 -852 0
-852 -16 -853 0
-852 16 853 0
852 -16 853 0
852 16 -853 0
-853 -17 -854 0
-853 17 854 0
853 -17 854 0
853 17 -854 0
-854 -18 -855 0
-854 18 855 0
854 -18 855 0
854 18 -855 0
-855 -19 -856 0
-855 19 856 0
855 -19 856 0
855 19 -856 0
-856 -20 -857 0
-856 20 857 0
856 -20 857 0
856 20 -857 0
-1 -2 -858 0
-1 2 858 0
1 -2 858 0
1 2 -858 0
-858 -3 -859 0
-858 3 859 0
858 -3 859 0
858 3 -859 0
-859 -4 -860 0
-859 4 860 0
859 -4 860 0
859 4 -860 0
-860 -5 -861 0
-860 5 861 0
860 -5 861 0
860 5 -861 0
-861 -6 -862 0
-861 6 862 0
861 -6 862 0
861 6 -862 0
-862 -7 -863 0
-862 7 863 0
862 -7 863 0
862 7 -863 0
-863 -8 -864 0
-863 8 864 0
863 -8 864 0
863 8 -864 0
-864 -9 -865 0
-864 9 865 0
864 -9 865 0
864 9 -865 0
-865 -10 -866 0
-865 10 866 0
865 -10 866 0
865 10 -866 0
-866 -31 -867 0
-866 31 867 0
866 -31 867 0
866 31 -867 0
-867 -32 -868 0
-867 32 868 0
867 -32 868 0
867 32 -868 0
-868 -33 -869 0
-868 33 869 0
868 -33 869 0
868 33 -869 0
-869 -34 -870 0
-869 34 870 0
869 -34 870 0
869 34 -870 0
-870 -35 -871 0
-870 35 871 0
870 -35 871 0
870 35 -871 0
-871 -36 -872 0
-871 36 872 0
871 -36 872 0
871 36 -872 0
-872 -37 -873 0
-872 37 873 0
872 -37 873 0
872 37 -873 0
-873 -38 -874 0
-873 38 874 0
873 -38 874 0
873 38 -874 0
-874 -39 -875 0
-874 39 875 0
874 -39 875 0
874 39 -875 0
-875 -40 -876 0
-875 40 876 0
875 -40 876 0
875 40 -876 0
857 876 0
-11 -21 -877 0
-11 21 877 0
11 -21 877 0
11 21 -877 0
-878 31 0
878 -31 0
877 878 0
-2 -22 -879 0
-2 22 879 0
2 -22 879 0
2 22 -879 0
-2 -32 -880 0
-2 32 880 0
2 -32 880 0
2 32 -880 0
879 880 0
-21 -22 -881 0
-21 22 881 0
21 -22 881 0
21 22 -881 0
-1 -2 -882 0
-1 2 882 0
1 -2 882 0
1 2 -882 0
-882 -11 -883 0
-882 11 883 0
882 -11 883 0
882 11 -883 0
-883 -12 -884 0
-883 12 884 0
883 -12 884 0
883 12 -884 0
-884 -31 -885 0
-884 31 885 0
884 -31 885 0
884 31 -885 0
-885 -32 -886 0
-885 32 886 0
885 -32 886 0
885 32 -886 0
881 886 0
-22 -24 -887 0
-22 24 887 0
22 -24 887 0
22 24 -887 0
-12 -14 -888 0
-12 14 888 0
12 -14 888 0
12 14 -888 0
-888 -32 -889 0
-888 32 889 0
888 -32 889 0
888 32 -889 0
-889 -34 -890 0
-889 34 890 0
889 -34 890 0
889 34 -890 0
887 890 0
-11 -12 -891 0
-11 12 891 0
11 -12 891 0
11 12 -891 0
-891 -13 -892 0
-891 13 892 0
891 -13 892 0
891 13 -892 0
-892 -14 -893 0
-892 14 893 0
892 -14 893 0
892 14 -893 0
-893 -15 -894 0
-893 15 894 0
893 -15 894 0
893 15 -894 0
-894 -21 -895 0
-894 21 895 0
894 -21 895 0
894 21 -895 0
-895 -22 -896 0
-895 22 896 0
895 -22 896 0
895 22 -896 0
-896 -23 -897 0
-896 23 897 0
896 -23 897 0
896 23 -897 0
-897 -24 -898 0
-897 24 898 0
897 -24 898 0
897 24 -898 0
-898 -25 -899 0
-898 25 899 0
898 -25 899 0
898 25 -899 0
-11 -12 -900 0
-11 12 900 0
11 -12 900 0
11 12 -900 0
-900 -13 -901 0
-900 13 901 0
900 -13 901 0
900 13 -901 0
-901 -14 -902 0
-901 14 902 0
901 -14 902 0
901 14 -902 0
-902 -15 -903 0
-902 15 903 0
902 -15 903 0
902 15 -903 0
-903 -31 -904 0
-903 31 904 0
903 -31 904 0
903 31 -904 0
-904 -32 -905 0
-904 32 905 0
904 -32 905 0
904 32 -905 0
-905 -33 -906 0
-905 33 906 0
905 -33 906 0
905 33 -906 0
-906 -34 -907 0
-906 34 907 0
906 -34 907 0
906 34 -907 0
-907 -35 -908 0
-907 35 908 0
907 -35 908 0
907 35 -908 0
899 908 0
-2 -6 -909 0
-2 6 909 0
2 -6 909 0
2 6 -909 0
-909 -22 -910 0
-909 22 910 0
909 -22 910 0
909 22 -910 0
-910 -26 -911 0
-910 26 911 0
910 -26 911 0
910 26 -911 0
-32 -36 -912 0
-32 36 912 0
32 -36 912 0
32 36 -912 0
911 912 0
-25 -26 -913 0
-25 26 913 0
25 -26 913 0
25 26 -913 0
-35 -36 -914 0
-35 36 914 0
35 -36 914 0
35 36 -914 0
913 914 0
-1 -3 -915 0
-1 3 915 0
1 -3 915 0
1 3 -915 0
-915 -5 -916 0
-915 5 916 0
915 -5 916 0
915 5 -916 0
-916 -6 -917 0
-916 6 917 0
916 -6 917 0
916 6 -917 0
-917 -11 -918 0
-917 11 918 0
917 -11 918 0
917 11 -918 0
-918 -13 -919 0
-918 13 919 0
918 -13 919 0
918 13 -919 0
-919 -15 -920 0
-919 15 920 0
919 -15 920 0
919 15 -920 0
-920 -16 -921 0
-920 16 921 0
920 -16 921 0
920 16 -921 0
-921 -21 -922 0
-921 21 922 0
921 -21 922 0
921 21 -922 0
-922 -23 -923 0
-922 23 923 0
922 -23 923 0
922 23 -923 0
-923 -25 -924 0
-923 25 924 0
923 -25 924 0
923 25 -924 0
-924 -26 -925 0
-924 26 925 0
924 -26 925 0
924 26 -925 0
-31 -33 -926 0
-31 33 926 0
31 -33 926 0
31 33 -926 0
-926 -35 -927 0
-926 35 927 0
926 -35 927 0
926 35 -927 0
-927 -36 -928 0
-927 36 928 0
927 -36 928 0
927 36 -928 0
925 928 0
-5 -7 -929 0
-5 7 929 0
5 -7 929 0
5 7 -929 0
-929 -25 -930 0
-929 25 930 0
929 -25 930 0
929 25 -930 0
-930 -27 -931 0
-930 27 931 0
930 -27 931 0
930 27 -931 0
-35 -37 -932 0
-35 37 932 0
35 -37 932 0
35 37 -932 0
931 932 0
-5 -6 -933 0
-5 6 933 0
5 -6 933 0
5 6 -933 0
-933 -7 -934 0
-933 7 934 0
933 -7 934 0
933 7 -934 0
-934 -25 -935 0
-934 25 935 0
934 -25 935 0
934 25 -935 0
-935 -26 -936 0
-935 26 936 0
935 -26 936 0
935 26 -936 0
-936 -27 -937 0
-936 27 937 0
936 -27 937 0
936 27 -937 0
-5 -6 -938 0
-5 6 938 0
5 -6 938 0
5 6 -938 0
-938 -7 -939 0
-938 7 939 0
938 -7 939 0
938 7 -939 0
-939 -15 -940 0
-939 15 940 0
939 -15 940 0
939 15 -940 0
-940 -16 -941 0
-940 16 941 0
940 -16 941 0
940 16 -941 0
-941 -17 -942 0
-941 17 942 0
941 -17 942 0
941 17 -942 0
-942 -35 -943 0
-942 35 943 0
942 -35 943 0
942 35 -943 0
-943 -36 -944 0
-943 36 944 0
943 -36 944 0
943 36 -944 0
-944 -37 -945 0
-944 37 945 0
944 -37 945 0
944 37 -945 0
937 945 0
-2 -5 -946 0
-2 5 946 0
2 -5 946 0
2 5 -946 0
-946 -6 -947 0
-946 6 947 0
946 -6 947 0
946 6 -947 0
-947 -7 -948 0
-947 7 948 0
947 -7 948 0
947 7 -948 0
-948 -22 -949 0
-948 22 949 0
948 -22 949 0
948 22 -949 0
-949 -25 -950 0
-949 25 950 0
949 -25 950 0
949 25 -950 0
-950 -26 -951 0
-950 26 951 0
950 -26 951 0
950 26 -951 0
-951 -27 -952 0
-951 27 952 0
951 -27 952 0
951 27 -952 0
-32 -35 -953 0
-32 35 953 0
32 -35 953 0
32 35 -953 0
-953 -36 -954 0
-953 36 954 0
953 -36 954 0
953 36 -954 0
-954 -37 -955 0
-954 37 955 0
954 -37 955 0
954 37 -955 0
952 955 0
-15 -18 -956 0
-15 18 956 0
15 -18 956 0
15 18 -956 0
-956 -25 -957 0
-956 25 957 0
956 -25 957 0
956 25 -957 0
-957 -28 -958 0
-957 28 958 0
957 -28 958 0
957 28 -958 0
-5 -8 -959 0
-5 8 959 0
5 -8 959 0
5 8 -959 0
-959 -15 -960 0
-959 15 960 0
959 -15 960 0
959 15 -960 0
-960 -18 -961 0
-960 18 961 0
960 -18 961 0
960 18 -961 0
-961 -35 -962 0
-961 35 962 0
961 -35 962 0
961 35 -962 0
-962 -38 -963 0
-962 38 963 0
962 -38 963 0
962 38 -963 0
958 963 0
-2 -4 -964 0
-2 4 964 0
2 -4 964 0
2 4 -964 0
-964 -6 -965 0
-964 6 965 0
964 -6 965 0
964 6 -965 0
-965 -8 -966 0
-965 8 966 0
965 -8 966 0
965 8 -966 0
-966 -22 -967 0
-966 22 967 0
966 -22 967 0
966 22 -967 0
-967 -24 -968 0
-967 24 968 0
967 -24 968 0
967 24 -968 0
-968 -26 -969 0
-968 26 969 0
968 -26 969 0
968 26 -969 0
-969 -28 -970 0
-969 28 970 0
969 -28 970 0
969 28 -970 0
-12 -14 -971 0
-12 14 971 0
12 -14 971 0
12 14 -971 0
-971 -16 -972 0
-971 16 972 0
971 -16 972 0
971 16 -972 0
-972 -18 -973 0
-972 18 973 0
972 -18 973 0
972 18 -973 0
-973 -32 -974 0
-973 32 974 0
973 -32 974 0
973 32 -974 0
-974 -34 -975 0
-974 34 975 0
974 -34 975 0
974 34 -975 0
-975 -36 -976 0
-975 36 976 0
975 -36 976 0
975 36 -976 0
-976 -38 -977 0
-976 38 977 0
976 -38 977 0
976 38 -977 0
970 977 0
-1 -3 -978 0
-1 3 978 0
1 -3 978 0
1 3 -978 0
-978 -4 -979 0
-978 4 979 0
978 -4 979 0
978 4 -979 0
-979 -5 -980 0
-979 5 980 0
979 -5 980 0
979 5 -980 0
-980 -6 -981 0
-980 6 981 0
980 -6 981 0
980 6 -981 0
-981 -8 -982 0
-981 8 982 0
981 -8 982 0
981 8 -982 0
-982 -11 -983 0
-982 11 983 0
982 -11 983 0
982 11 -983 0
-983 -13 -984 0
-983 13 984 0
983 -13 984 0
983 13 -984 0
-984 -14 -985 0
-984 14 985 0
984 -14 985 0
984 14 -985 0
-985 -15 -986 0
-985 15 986 0
985 -15 986 0
985 15 -986 0
-986 -16 -987 0
-986 16 987 0
986 -16 987 0
986 16 -987 0
-987 -18 -988 0
-987 18 988 0
987 -18 988 0
987 18 -988 0
-988 -21 -989 0
-988 21 989 0
988 -21 989 0
988 21 -989 0
-989 -23 -990 0
-989 23 990 0
989 -23 990 0
989 23 -990 0
-990 -24 -991 0
-990 24 991 0
990 -24 991 0
990 24 -991 0
-991 -25 -992 0
-991 25 992 0
991 -25 992 0
991 25 -992 0
-992 -26 -993 0
-992 26 993 0
992 -26 993 0
992 26 -993 0
-993 -28 -994 0
-993 28 994 0
993 -28 994 0
993 28 -994 0
-1 -3 -995 0
-1 3 995 0
1 -3 995 0
1 3 -995 0
-995 -4 -996 0
-995 4 996 0
995 -4 996 0
995 4 -996 0
-996 -5 -997 0
-996 5 997 0
996 -5 997 0
996 5 -997 0
-997 -6 -998 0
-997 6 998 0
997 -6 998 0
997 6 -998 0
-998 -8 -999 0
-998 8 999 0
998 -8 999 0
998 8 -999 0
-999 -31 -1000 0
-999 31 1000 0
999 -31 1000 0
999 31 -1000 0
-1000 -33 -1001 0
-1000 33 1001 0
1000 -33 1001 0
1000 33 -1001 0
-1001 -34 -1002 0
-1001 34 1002 0
1001 -34 1002 0
1001 34 -1002 0
-1002 -35 -1003 0
-1002 35 1003 0
1002 -35 1003 0
1002 35 -1003 0
-1003 -36 -1004 0
-1003 36 1004 0
1003 -36 1004 0
1003 36 -1004 0
-1004 -38 -1005 0
-1004 38 1005 0
1004 -38 1005 0
1004 38 -1005 0
994 1005 0
-6 -7 -1006 0
-6 7 1006 0
6 -7 1006 0
6 7 -1006 0
-1006 -8 -1007 0
-1006 8 1007 0
1006 -8 1007 0
1006 8 -1007 0
-1007 -16 -1008 0
-1007 16 1008 0
1007 -16 1008 0
1007 16 -1008 0
-1008 -17 -1009 0
-1008 17 1009 0
1008 -17 1009 0
1008 17 -1009 0
-1009 -18 -1010 0
-1009 18 1010 0
1009 -18 1010 0
1009 18 -1010 0
-1010 -26 -1011 0
-1010 26 1011 0
1010 -26 1011 0
1010 26 -1011 0
-1011 -27 -1012 0
-1011 27 1012 0
1011 -27 1012 0
1011 27 -1012 0
-1012 -28 -1013 0
-1012 28 1013 0
1012 -28 1013 0
1012 28 -1013 0
-6 -7 -1014 0
-6 7 1014 0
6 -7 1014 0
6 7 -1014 0
-1014 -8 -1015 0
-1014 8 1015 0
1014 -8 1015 0
1014 8 -1015 0
-1015 -16 -1016 0
-1015 16 1016 0
1015 -16 1016 0
1015 16 -1016 0
-1016 -17 -1017 0
-1016 17 1017 0
1016 -17 1017 0
1016 17 -1017 0
-1017 -18 -1018 0
-1017 18 1018 0
1017 -18 1018 0
1017 18 -1018 0
-1018 -36 -1019 0
-1018 36 1019 0
1018 -36 1019 0
1018 36 -1019 0
-1019 -37 -1020 0
-1019 37 1020 0
1019 -37 1020 0
1019 37 -1020 0
-1020 -38 -1021 0
-1020 38 1021 0
1020 -38 1021 0
1020 38 -1021 0
1013 1021 0
-2 -3 -1022 0
-2 3 1022 0
2 -3 1022 0
2 3 -1022 0
-1022 -4 -1023 0
-1022 4 1023 0
1022 -4 1023 0
1022 4 -1023 0
-1023 -6 -1024 0
-1023 6 1024 0
1023 -6 1024 0
1023 6 -1024 0
-1024 -7 -1025 0
-1024 7 1025 0
1024 -7 1025 0
1024 7 -1025 0
-1025 -8 -1026 0
-1025 8 1026 0
1025 -8 1026 0
1025 8 -1026 0
-1026 -12 -1027 0
-1026 12 1027 0
1026 -12 1027 0
1026 12 -1027 0
-1027 -13 -1028 0
-1027 13 1028 0
1027 -13 1028 0
1027 13 -1028 0
-1028 -14 -1029 0
-1028 14 1029 0
1028 -14 1029 0
1028 14 -1029 0
-1029 -16 -1030 0
-1029 16 1030 0
1029 -16 1030 0
1029 16 -1030 0
-1030 -17 -1031 0
-1030 17 1031 0
1030 -17 1031 0
1030 17 -1031 0
-1031 -18 -1032 0
-1031 18 1032 0
1031 -18 1032 0
1031 18 -1032 0
-1032 -22 -1033 0
-1032 22 1033 0
1032 -22 1033 0
1032 22 -1033 0
-1033 -23 -1034 0
-1033 23 1034 0
1033 -23 1034 0
1033 23 -1034 0
-1034 -24 -1035 0
-1034 24 1035 0
1034 -24 1035 0
1034 24 -1035 0
-1035 -26 -1036 0
-1035 26 1036 0
1035 -26 1036 0
1035 26 -1036 0
-1036 -27 -1037 0
-1036 27 1037 0
1036 -27 1037 0
1036 27 -1037 0
-1037 -28 -1038 0
-1037 28 1038 0
1037 -28 1038 0
1037 28 -1038 0
-12 -13 -1039 0
-12 13 1039 0
12 -13 1039 0
12 13 -1039 0
-1039 -14 -1040 0
-1039 14 1040 0
1039 -14 1040 0
1039 14 -1040 0
-1040 -16 -1041 0
-1040 16 1041 0
1040 -16 1041 0
1040 16 -1041 0
-1041 -17 -1042 0
-1041 17 1042 0
1041 -17 1042 0
1041 17 -1042 0
-1042 -18 -1043 0
-1042 18 1043 0
1042 -18 1043 0
1042 18 -1043 0
-1043 -32 -1044 0
-1043 32 1044 0
1043 -32 1044 0
1043 32 -1044 0
-1044 -33 -1045 0
-1044 33 1045 0
1044 -33 1045 0
1044 33 -1045 0
-1045 -34 -1046 0
-1045 34 1046 0
1045 -34 1046 0
1045 34 -1046 0
-1046 -36 -1047 0
-1046 36 1047 0
1046 -36 1047 0
1046 36 -1047 0
-1047 -37 -1048 0
-1047 37 1048 0
1047 -37 1048 0
1047 37 -1048 0
-1048 -38 -1049 0
-1048 38 1049 0
1048 -38 1049 0
1048 38 -1049 0
1038 1049 0
-12 -13 -1050 0
-12 13 1050 0
12 -13 1050 0
12 13 -1050 0
-1050 -15 -1051 0
-1050 15 1051 0
1050 -15 1051 0
1050 15 -1051 0
-1051 -16 -1052 0
-1051 16 1052 0
1051 -16 1052 0
1051 16 -1052 0
-1052 -17 -1053 0
-1052 17 1053 0
1052 -17 1053 0
1052 17 -1053 0
-1053 -18 -1054 0
-1053 18 1054 0
1053 -18 1054 0
1053 18 -1054 0
-1054 -22 -1055 0
-1054 22 1055 0
1054 -22 1055 0
1054 22 -1055 0
-1055 -23 -1056 0
-1055 23 1056 0
1055 -23 1056 0
1055 23 -1056 0
-1056 -25 -1057 0
-1056 25 1057 0
1056 -25 1057 0
1056 25 -1057 0
-1057 -26 -1058 0
-1057 26 1058 0
1057 -26 1058 0
1057 26 -1058 0
-1058 -27 -1059 0
-1058 27 1059 0
1058 -27 1059 0
1058 27 -1059 0
-1059 -28 -1060 0
-1059 28 1060 0
1059 -28 1060 0
1059 28 -1060 0
-2 -3 -1061 0
-2 3 1061 0
2 -3 1061 0
2 3 -1061 0
-1061 -5 -1062 0
-1061 5 1062 0
1061 -5 1062 0
1061 5 -1062 0
-1062 -6 -1063 0
-1062 6 1063 0
1062 -6 1063 0
1062 6 -1063 0
-1063 -7 -1064 0
-1063 7 1064 0
1063 -7 1064 0
1063 7 -1064 0
-1064 -8 -1065 0
-1064 8 1065 0
1064 -8 1065 0
1064 8 -1065 0
-1065 -32 -1066 0
-1065 32 1066 0
1065 -32 1066 0
1065 32 -1066 0
-1066 -33 -1067 0
-1066 33 1067 0
1066 -33 1067 0
1066 33 -1067 0
-1067 -35 -1068 0
-1067 35 1068 0
1067 -35 1068 0
1067 35 -1068 0
-1068 -36 -1069 0
-1068 36 1069 0
1068 -36 1069 0
1068 36 -1069 0
-1069 -37 -1070 0
-1069 37 1070 0
1069 -37 1070 0
1069 37 -1070 0
-1070 -38 -1071 0
-1070 38 1071 0
1070 -38 1071 0
1070 38 -1071 0
1060 1071 0
-1 -2 -1072 0
-1 2 1072 0
1 -2 1072 0
1 2 -1072 0
-1072 -9 -1073 0
-1072 9 1073 0
1072 -9 1073 0
1072 9 -1073 0
-1073 -11 -1074 0
-1073 11 1074 0
1073 -11 1074 0
1073 11 -1074 0
-1074 -12 -1075 0
-1074 12 1075 0
1074 -12 1075 0
1074 12 -1075 0
-1075 -19 -1076 0
-1075 19 1076 0
1075 -19 1076 0
1075 19 -1076 0
-1076 -21 -1077 0
-1076 21 1077 0
1076 -21 1077 0
1076 21 -1077 0
-1077 -22 -1078 0
-1077 22 1078 0
1077 -22 1078 0
1077 22 -1078 0
-1078 -29 -1079 0
-1078 29 1079 0
1078 -29 1079 0
1078 29 -1079 0
-31 -32 -1080 0
-31 32 1080 0
31 -32 1080 0
31 32 -1080 0
-1080 -39 -1081 0
-1080 39 1081 0
1080 -39 1081 0
1080 39 -1081 0
1079 1081 0
-1 -2 -1082 0
-1 2 1082 0
1 -2 1082 0
1 2 -1082 0
-1082 -3 -1083 0
-1082 3 1083 0
1082 -3 1083 0
1082 3 -1083 0
-1083 -9 -1084 0
-1083 9 1084 0
1083 -9 1084 0
1083 9 -1084 0
-1084 -21 -1085 0
-1084 21 1085 0
1084 -21 1085 0
1084 21 -1085 0
-1085 -22 -1086 0
-1085 22 1086 0
1085 -22 1086 0
1085 22 -1086 0
-1086 -23 -1087 0
-1086 23 1087 0
1086 -23 1087 0
1086 23 -1087 0
-1087 -29 -1088 0
-1087 29 1088 0
1087 -29 1088 0
1087 29 -1088 0
-31 -32 -1089 0
-31 32 1089 0
31 -32 1089 0
31 32 -1089 0
-1089 -33 -1090 0
-1089 33 1090 0
1089 -33 1090 0
1089 33 -1090 0
-1090 -39 -1091 0
-1090 39 1091 0
1090 -39 1091 0
1090 39 -1091 0
1088 1091 0
-1 -3 -1092 0
-1 3 1092 0
1 -3 1092 0
1 3 -1092 0
-1092 -4 -1093 0
-1092 4 1093 0
1092 -4 1093 0
1092 4 -1093 0
-1093 -9 -1094 0
-1093 9 1094 0
1093 -9 1094 0
1093 9 -1094 0
-1094 -11 -1095 0
-1094 11 1095 0
1094 -11 1095 0
1094 11 -1095 0
-1095 -13 -1096 0
-1095 13 1096 0
1095 -13 1096 0
1095 13 -1096 0
-1096 -14 -1097 0
-1096 14 1097 0
1096 -14 1097 0
1096 14 -1097 0
-1097 -19 -1098 0
-1097 19 1098 0
1097 -19 1098 0
1097 19 -1098 0
-1098 -21 -1099 0
-1098 21 1099 0
1098 -21 1099 0
1098 21 -1099 0
-1099 -23 -1100 0
-1099 23 1100 0
1099 -23 1100 0
1099 23 -1100 0
-1100 -24 -1101 0
-1100 24 1101 0
1100 -24 1101 0
1100 24 -1101 0
-1101 -29 -1102 0
-1101 29 1102 0
1101 -29 1102 0
1101 29 -1102 0
-1 -3 -1103 0
-1 3 1103 0
1 -3 1103 0
1 3 -1103 0
-1103 -4 -1104 0
-1103 4 1104 0
1103 -4 1104 0
1103 4 -1104 0
-1104 -9 -1105 0
-1104 9 1105 0
1104 -9 1105 0
1104 9 -1105 0
-1105 -11 -1106 0
-1105 11 1106 0
1105 -11 1106 0
1105 11 -1106 0
-1106 -13 -1107 0
-1106 13 1107 0
1106 -13 1107 0
1106 13 -1107 0
-1107 -14 -1108 0
-1107 14 1108 0
1107 -14 1108 0
1107 14 -1108 0
-1108 -19 -1109 0
-1108 19 1109 0
1108 -19 1109 0
1108 19 -1109 0
-1109 -31 -1110 0
-1109 31 1110 0
1109 -31 1110 0
1109 31 -1110 0
-1110 -33 -1111 0
-1110 33 1111 0
1110 -33 1111 0
1110 33 -1111 0
-1111 -34 -1112 0
-1111 34 1112 0
1111 -34 1112 0
1111 34 -1112 0
-1112 -39 -1113 0
-1112 39 1113 0
1112 -39 1113 0
1112 39 -1113 0
1102 1113 0
-25 -29 -1114 0
-25 29 1114 0
25 -29 1114 0
25 29 -1114 0
-35 -39 -1115 0
-35 39 1115 0
35 -39 1115 0
35 39 -1115 0
1114 1115 0
-26 -29 -1116 0
-26 29 1116 0
26 -29 1116 0
26 29 -1116 0
-36 -39 -1117 0
-36 39 1117 0
36 -39 1117 0
36 39 -1117 0
1116 1117 0
-1 -3 -1118 0
-1 3 1118 0
1 -3 1118 0
1 3 -1118 0
-1118 -6 -1119 0
-1118 6 1119 0
1118 -6 1119 0
1118 6 -1119 0
-1119 -9 -1120 0
-1119 9 1120 0
1119 -9 1120 0
1119 9 -1120 0
-1120 -21 -1121 0
-1120 21 1121 0
1120 -21 1121 0
1120 21 -1121 0
-1121 -23 -1122 0
-1121 23 1122 0
1121 -23 1122 0
1121 23 -1122 0
-1122 -26 -1123 0
-1122 26 1123 0
1122 -26 1123 0
1122 26 -1123 0
-1123 -29 -1124 0
-1123 29 1124 0
1123 -29 1124 0
1123 29 -1124 0
-31 -33 -1125 0
-31 33 1125 0
31 -33 1125 0
31 33 -1125 0
-1125 -36 -1126 0
-1125 36 1126 0
1125 -36 1126 0
1125 36 -1126 0
-1126 -39 -1127 0
-1126 39 1127 0
1126 -39 1127 0
1126 39 -1127 0
1124 1127 0
-21 -24 -1128 0
-21 24 1128 0
21 -24 1128 0
21 24 -1128 0
-1128 -26 -1129 0
-1128 26 1129 0
1128 -26 1129 0
1128 26 -1129 0
-1129 -29 -1130 0
-1129 29 1130 0
1129 -29 1130 0
1129 29 -1130 0
-1 -4 -1131 0
-1 4 1131 0
1 -4 1131 0
1 4 -1131 0
-1131 -6 -1132 0
-1131 6 1132 0
1131 -6 1132 0
1131 6 -1132 0
-1132 -9 -1133 0
-1132 9 1133 0
1132 -9 1133 0
1132 9 -1133 0
-1133 -31 -1134 0
-1133 31 1134 0
1133 -31 1134 0
1133 31 -1134 0
-1134 -34 -1135 0
-1134 34 1135 0
1134 -34 1135 0
1134 34 -1135 0
-1135 -36 -1136 0
-1135 36 1136 0
1135 -36 1136 0
1135 36 -1136 0
-1136 -39 -1137 0
-1136 39 1137 0
1136 -39 1137 0
1136 39 -1137 0
1130 1137 0
-2 -3 -1138 0
-2 3 1138 0
2 -3 1138 0
2 3 -1138 0
-1138 -5 -1139 0
-1138 5 1139 0
1138 -5 1139 0
1138 5 -1139 0
-1139 -6 -1140 0
-1139 6 1140 0
1139 -6 1140 0
1139 6 -1140 0
-1140 -9 -1141 0
-1140 9 1141 0
1140 -9 1141 0
1140 9 -1141 0
-1141 -12 -1142 0
-1141 12 1142 0
1141 -12 1142 0
1141 12 -1142 0
-1142 -13 -1143 0
-1142 13 1143 0
1142 -13 1143 0
1142 13 -1143 0
-1143 -15 -1144 0
-1143 15 1144 0
1143 -15 1144 0
1143 15 -1144 0
-1144 -16 -1145 0
-1144 16 1145 0
1144 -16 1145 0
1144 16 -1145 0
-1145 -19 -1146 0
-1145 19 1146 0
1145 -19 1146 0
1145 19 -1146 0
-1146 -22 -1147 0
-1146 22 1147 0
1146 -22 1147 0
1146 22 -1147 0
-1147 -23 -1148 0
-1147 23 1148 0
1147 -23 1148 0
1147 23 -1148 0
-1148 -25 -1149 0
-1148 25 1149 0
1148 -25 1149 0
1148 25 -1149 0
-1149 -26 -1150 0
-1149 26 1150 0
1149 -26 1150 0
1149 26 -1150 0
-1150 -29 -1151 0
-1150 29 1151 0
1150 -29 1151 0
1150 29 -1151 0
-32 -33 -1152 0
-32 33 1152 0
32 -33 1152 0
32 33 -1152 0
-1152 -35 -1153 0
-1152 35 1153 0
1152 -35 1153 0
1152 35 -1153 0
-1153 -36 -1154 0
-1153 36 1154 0
1153 -36 1154 0
1153 36 -1154 0
-1154 -39 -1155 0
-1154 39 1155 0
1154 -39 1155 0
1154 39 -1155 0
1151 1155 0
-1 -2 -1156 0
-1 2 1156 0
1 -2 1156 0
1 2 -1156 0
-1156 -3 -1157 0
-1156 3 1157 0
1156 -3 1157 0
1156 3 -1157 0
-1157 -5 -1158 0
-1157 5 1158 0
1157 -5 1158 0
1157 5 -1158 0
-1158 -7 -1159 0
-1158 7 1159 0
1158 -7 1159 0
1158 7 -1159 0
-1159 -9 -1160 0
-1159 9 1160 0
1159 -9 1160 0
1159 9 -1160 0
-1160 -21 -1161 0
-1160 21 1161 0
1160 -21 1161 0
1160 21 -1161 0
-1161 -22 -1162 0
-1161 22 1162 0
1161 -22 1162 0
1161 22 -1162 0
-1162 -23 -1163 0
-1162 23 1163 0
1162 -23 1163 0
1162 23 -1163 0
-1163 -25 -1164 0
-1163 25 1164 0
1163 -25 1164 0
1163 25 -1164 0
-1164 -27 -1165 0
-1164 27 1165 0
1164 -27 1165 0
1164 27 -1165 0
-1165 -29 -1166 0
-1165 29 1166 0
1165 -29 1166 0
1165 29 -1166 0
-31 -32 -1167 0
-31 32 1167 0
31 -32 1167 0
31 32 -1167 0
-1167 -33 -1168 0
-1167 33 1168 0
1167 -33 1168 0
1167 33 -1168 0
-1168 -35 -1169 0
-1168 35 1169 0
1168 -35 1169 0
1168 35 -1169 0
-1169 -37 -1170 0
-1169 37 1170 0
1169 -37 1170 0
1169 37 -1170 0
-1170 -39 -1171 0
-1170 39 1171 0
1170 -39 1171 0
1170 39 -1171 0
1166 1171 0
-15 -16 -1172 0
-15 16 1172 0
15 -16 1172 0
15 16 -1172 0
-1172 -17 -1173 0
-1172 17 1173 0
1172 -17 1173 0
1172 17 -1173 0
-1173 -19 -1174 0
-1173 19 1174 0
1173 -19 1174 0
1173 19 -1174 0
-1174 -25 -1175 0
-1174 25 1175 0
1174 -25 1175 0
1174 25 -1175 0
-1175 -26 -1176 0
-1175 26 1176 0
1175 -26 1176 0
1175 26 -1176 0
-1176 -27 -1177 0
-1176 27 1177 0
1176 -27 1177 0
1176 27 -1177 0
-1177 -29 -1178 0
-1177 29 1178 0
1177 -29 1178 0
1177 29 -1178 0
-35 -36 -1179 0
-35 36 1179 0
35 -36 1179 0
35 36 -1179 0
-1179 -37 -1180 0
-1179 37 1180 0
1179 -37 1180 0
1179 37 -1180 0
-1180 -39 -1181 0
-1180 39 1181 0
1180 -39 1181 0
1180 39 -1181 0
1178 1181 0
-11 -15 -1182 0
-11 15 1182 0
11 -15 1182 0
11 15 -1182 0
-1182 -16 -1183 0
-1182 16 1183 0
1182 -16 1183 0
1182 16 -1183 0
-1183 -17 -1184 0
-1183 17 1184 0
1183 -17 1184 0
1183 17 -1184 0
-1184 -19 -1185 0
-1184 19 1185 0
1184 -19 1185 0
1184 19 -1185 0
-1185 -21 -1186 0
-1185 21 1186 0
1185 -21 1186 0
1185 21 -1186 0
-1186 -25 -1187 0
-1186 25 1187 0
1186 -25 1187 0
1186 25 -1187 0
-1187 -26 -1188 0
-1187 26 1188 0
1187 -26 1188 0
1187 26 -1188 0
-1188 -27 -1189 0
-1188 27 1189 0
1188 -27 1189 0
1188 27 -1189 0
-1189 -29 -1190 0
-1189 29 1190 0
1189 -29 1190 0
1189 29 -1190 0
-31 -35 -1191 0
-31 35 1191 0
31 -35 1191 0
31 35 -1191 0
-1191 -36 -1192 0
-1191 36 1192 0
1191 -36 1192 0
1191 36 -1192 0
-1192 -37 -1193 0
-1192 37 1193 0
1192 -37 1193 0
1192 37 -1193 0
-1193 -39 -1194 0
-1193 39 1194 0
1193 -39 1194 0
1193 39 -1194 0
1190 1194 0
-1 -3 -1195 0
-1 3 1195 0
1 -3 1195 0
1 3 -1195 0
-1195 -5 -1196 0
-1195 5 1196 0
1195 -5 1196 0
1195 5 -1196 0
-1196 -6 -1197 0
-1196 6 1197 0
1196 -6 1197 0
1196 6 -1197 0
-1197 -7 -1198 0
-1197 7 1198 0
1197 -7 1198 0
1197 7 -1198 0
-1198 -9 -1199 0
-1198 9 1199 0
1198 -9 1199 0
1198 9 -1199 0
-1199 -21 -1200 0
-1199 21 1200 0
1199 -21 1200 0
1199 21 -1200 0
-1200 -23 -1201 0
-1200 23 1201 0
1200 -23 1201 0
1200 23 -1201 0
-1201 -25 -1202 0
-1201 25 1202 0
1201 -25 1202 0
1201 25 -1202 0
-1202 -26 -1203 0
-1202 26 1203 0
1202 -26 1203 0
1202 26 -1203 0
-1203 -27 -1204 0
-1203 27 1204 0
1203 -27 1204 0
1203 27 -1204 0
-1204 -29 -1205 0
-1204 29 1205 0
1204 -29 1205 0
1204 29 -1205 0
-31 -33 -1206 0
-31 33 1206 0
31 -33 1206 0
31 33 -1206 0
-1206 -35 -1207 0
-1206 35 1207 0
1206 -35 1207 0
1206 35 -1207 0
-1207 -36 -1208 0
-1207 36 1208 0
1207 -36 1208 0
1207 36 -1208 0
-1208 -37 -1209 0
-1208 37 1209 0
1208 -37 1209 0
1208 37 -1209 0
-1209 -39 -1210 0
-1209 39 1210 0
1209 -39 1210 0
1209 39 -1210 0
1205 1210 0
-1 -3 -1211 0
-1 3 1211 0
1 -3 1211 0
1 3 -1211 0
-1211 -4 -1212 0
-1211 4 1212 0
1211 -4 1212 0
1211 4 -1212 0
-1212 -5 -1213 0
-1212 5 1213 0
1212 -5 1213 0
1212 5 -1213 0
-1213 -7 -1214 0
-1213 7 1214 0
1213 -7 1214 0
1213 7 -1214 0
-1214 -8 -1215 0
-1214 8 1215 0
1214 -8 1215 0
1214 8 -1215 0
-1215 -9 -1216 0
-1215 9 1216 0
1215 -9 1216 0
1215 9 -1216 0
-1216 -21 -1217 0
-1216 21 1217 0
1216 -21 1217 0
1216 21 -1217 0
-1217 -23 -1218 0
-1217 23 1218 0
1217 -23 1218 0
1217 23 -1218 0
-1218 -24 -1219 0
-1218 24 1219 0
1218 -24 1219 0
1218 24 -1219 0
-1219 -25 -1220 0
-1219 25 1220 0
1219 -25 1220 0
1219 25 -1220 0
-1220 -27 -1221 0
-1220 27 1221 0
1220 -27 1221 0
1220 27 -1221 0
-1221 -28 -1222 0
-1221 28 1222 0
1221 -28 1222 0
1221 28 -1222 0
-1222 -29 -1223 0
-1222 29 1223 0
1222 -29 1223 0
1222 29 -1223 0
-1 -3 -1224 0
-1 3 1224 0
1 -3 1224 0
1 3 -1224 0
-1224 -4 -1225 0
-1224 4 1225 0
1224 -4 1225 0
1224 4 -1225 0
-1225 -5 -1226 0
-1225 5 1226 0
1225 -5 1226 0
1225 5 -1226 0
-1226 -7 -1227 0
-1226 7 1227 0
1226 -7 1227 0
1226 7 -1227 0
-1227 -8 -1228 0
-1227 8 1228 0
1227 -8 1228 0
1227 8 -1228 0
-1228 -9 -1229 0
-1228 9 1229 0
1228 -9 1229 0
1228 9 -1229 0
-1229 -31 -1230 0
-1229 31 1230 0
1229 -31 1230 0
1229 31 -1230 0
-1230 -33 -1231 0
-1230 33 1231 0
1230 -33 1231 0
1230 33 -1231 0
-1231 -34 -1232 0
-1231 34 1232 0
1231 -34 1232 0
1231 34 -1232 0
-1232 -35 -1233 0
-1232 35 1233 0
1232 -35 1233 0
1232 35 -1233 0
-1233 -37 -1234 0
-1233 37 1234 0
1233 -37 1234 0
1233 37 -1234 0
-1234 -38 -1235 0
-1234 38 1235 0
1234 -38 1235 0
1234 38 -1235 0
-1235 -39 -1236 0
-1235 39 1236 0
1235 -39 1236 0
1235 39 -1236 0
1223 1236 0
-1 -2 -1237 0
-1 2 1237 0
1 -2 1237 0
1 2 -1237 0
-1237 -3 -1238 0
-1237 3 1238 0
1237 -3 1238 0
1237 3 -1238 0
-1238 -4 -1239 0
-1238 4 1239 0
1238 -4 1239 0
1238 4 -1239 0
-1239 -5 -1240 0
-1239 5 1240 0
1239 -5 1240 0
1239 5 -1240 0
-1240 -7 -1241 0
-1240 7 1241 0
1240 -7 1241 0
1240 7 -1241 0
-1241 -8 -1242 0
-1241 8 1242 0
1241 -8 1242 0
1241 8 -1242 0
-1242 -9 -1243 0
-1242 9 1243 0
1242 -9 1243 0
1242 9 -1243 0
-1243 -21 -1244 0
-1243 21 1244 0
1243 -21 1244 0
1243 21 -1244 0
-1244 -22 -1245 0
-1244 22 1245 0
1244 -22 1245 0
1244 22 -1245 0
-1245 -23 -1246 0
-1245 23 1246 0
1245 -23 1246 0
1245 23 -1246 0
-1246 -24 -1247 0
-1246 24 1247 0
1246 -24 1247 0
1246 24 -1247 0
-1247 -25 -1248 0
-1247 25 1248 0
1247 -25 1248 0
1247 25 -1248 0
-1248 -27 -1249 0
-1248 27 1249 0
1248 -27 1249 0
1248 27 -1249 0
-1249 -28 -1250 0
-1249 28 1250 0
1249 -28 1250 0
1249 28 -1250 0
-1250 -29 -1251 0
-1250 29 1251 0
1250 -29 1251 0
1250 29 -1251 0
-1 -2 -1252 0
-1 2 1252 0
1 -2 1252 0
1 2 -1252 0
-1252 -3 -1253 0
-1252 3 1253 0
1252 -3 1253 0
1252 3 -1253 0
-1253 -4 -1254 0
-1253 4 1254 0
1253 -4 1254 0
1253 4 -1254 0
-1254 -5 -1255 0
-1254 5 1255 0
1254 -5 1255 0
1254 5 -1255 0
-1255 -7 -1256 0
-1255 7 1256 0
1255 -7 1256 0
1255 7 -1256 0
-1256 -8 -1257 0
-1256 8 1257 0
1256 -8 1257 0
1256 8 -1257 0
-1257 -9 -1258 0
-1257 9 1258 0
1257 -9 1258 0
1257 9 -1258 0
-1258 -31 -1259 0
-1258 31 1259 0
1258 -31 1259 0
1258 31 -1259 0
-1259 -32 -1260 0
-1259 32 1260 0
1259 -32 1260 0
1259 32 -1260 0
-1260 -33 -1261 0
-1260 33 1261 0
1260 -33 1261 0
1260 33 -1261 0
-1261 -34 -1262 0
-1261 34 1262 0
1261 -34 1262 0
1261 34 -1262 0
-1262 -35 -1263 0
-1262 35 1263 0
1262 -35 1263 0
1262 35 -1263 0
-1263 -37 -1264 0
-1263 37 1264 0
1263 -37 1264 0
1263 37 -1264 0
-1264 -38 -1265 0
-1264 38 1265 0
1264 -38 1265 0
1264 38 -1265 0
-1265 -39 -1266 0
-1265 39 1266 0
1265 -39 1266 0
1265 39 -1266 0
1251 1266 0
-1 -3 -1267 0
-1 3 1267 0
1 -3 1267 0
1 3 -1267 0
-1267 -4 -1268 0
-1267 4 1268 0
1267 -4 1268 0
1267 4 -1268 0
-1268 -6 -1269 0
-1268 6 1269 0
1268 -6 1269 0
1268 6 -1269 0
-1269 -7 -1270 0
-1269 7 1270 0
1269 -7 1270 0
1269 7 -1270 0
-1270 -8 -1271 0
-1270 8 1271 0
1270 -8 1271 0
1270 8 -1271 0
-1271 -9 -1272 0
-1271 9 1272 0
1271 -9 1272 0
1271 9 -1272 0
-1272 -11 -1273 0
-1272 11 1273 0
1272 -11 1273 0
1272 11 -1273 0
-1273 -13 -1274 0
-1273 13 1274 0
1273 -13 1274 0
1273 13 -1274 0
-1274 -14 -1275 0
-1274 14 1275 0
1274 -14 1275 0
1274 14 -1275 0
-1275 -16 -1276 0
-1275 16 1276 0
1275 -16 1276 0
1275 16 -1276 0
-1276 -17 -1277 0
-1276 17 1277 0
1276 -17 1277 0
1276 17 -1277 0
-1277 -18 -1278 0
-1277 18 1278 0
1277 -18 1278 0
1277 18 -1278 0
-1278 -19 -1279 0
-1278 19 1279 0
1278 -19 1279 0
1278 19 -1279 0
-1279 -21 -1280 0
-1279 21 1280 0
1279 -21 1280 0
1279 21 -1280 0
-1280 -23 -1281 0
-1280 23 1281 0
1280 -23 1281 0
1280 23 -1281 0
-1281 -24 -1282 0
-1281 24 1282 0
1281 -24 1282 0
1281 24 -1282 0
-1282 -26 -1283 0
-1282 26 1283 0
1282 -26 1283 0
1282 26 -1283 0
-1283 -27 -1284 0
-1283 27 1284 0
1283 -27 1284 0
1283 27 -1284 0
-1284 -28 -1285 0
-1284 28 1285 0
1284 -28 1285 0
1284 28 -1285 0
-1285 -29 -1286 0
-1285 29 1286 0
1285 -29 1286 0
1285 29 -1286 0
-1 -3 -1287 0
-1 3 1287 0
1 -3 1287 0
1 3 -1287 0
-1287 -4 -1288 0
-1287 4 1288 0
1287 -4 1288 0
1287 4 -1288 0
-1288 -6 -1289 0
-1288 6 1289 0
1288 -6 1289 0
1288 6 -1289 0
-1289 -7 -1290 0
-1289 7 1290 0
1289 -7 1290 0
1289 7 -1290 0
-1290 -8 -1291 0
-1290 8 1291 0
1290 -8 1291 0
1290 8 -1291 0
-1291 -9 -1292 0
-1291 9 1292 0
1291 -9 1292 0
1291 9 -1292 0
-1292 -11 -1293 0
-1292 11 1293 0
1292 -11 1293 0
1292 11 -1293 0
-1293 -13 -1294 0
-1293 13 1294 0
1293 -13 1294 0
1293 13 -1294 0
-1294 -14 -1295 0
-1294 14 1295 0
1294 -14 1295 0
1294 14 -1295 0
-1295 -16 -1296 0
-1295 16 1296 0
1295 -16 1296 0
1295 16 -1296 0
-1296 -17 -1297 0
-1296 17 1297 0
1296 -17 1297 0
1296 17 -1297 0
-1297 -18 -1298 0
-1297 18 1298 0
1297 -18 1298 0
1297 18 -1298 0
-1298 -19 -1299 0
-1298 19 1299 0
1298 -19 1299 0
1298 19 -1299 0
-1299 -31 -1300 0
-1299 31 1300 0
1299 -31 1300 0
1299 31 -1300 0
-1300 -33 -1301 0
-1300 33 1301 0
1300 -33 1301 0
1300 33 -1301 0
-1301 -34 -1302 0
-1301 34 1302 0
1301 -34 1302 0
1301 34 -1302 0
-1302 -36 -1303 0
-1302 36 1303 0
1302 -36 1303 0
1302 36 -1303 0
-1303 -37 -1304 0
-1303 37 1304 0
1303 -37 1304 0
1303 37 -1304 0
-1304 -38 -1305 0
-1304 38 1305 0
1304 -38 1305 0
1304 38 -1305 0
-1305 -39 -1306 0
-1305 39 1306 0
1305 -39 1306 0
1305 39 -1306 0
1286 1306 0
-1 -3 -1307 0
-1 3 1307 0
1 -3 1307 0
1 3 -1307 0
-1307 -4 -1308 0
-1307 4 1308 0
1307 -4 1308 0
1307 4 -1308 0
-1308 -10 -1309 0
-1308 10 1309 0
1308 -10 1309 0
1308 10 -1309 0
-1309 -21 -1310 0
-1309 21 1310 0
1309 -21 1310 0
1309 21 -1310 0
-1310 -23 -1311 0
-1310 23 1311 0
1310 -23 1311 0
1310 23 -1311 0
-1311 -24 -1312 0
-1311 24 1312 0
1311 -24 1312 0
1311 24 -1312 0
-1312 -30 -1313 0
-1312 30 1313 0
1312 -30 1313 0
1312 30 -1313 0
-1 -3 -1314 0
-1 3 1314 0
1 -3 1314 0
1 3 -1314 0
-1314 -4 -1315 0
-1314 4 1315 0
1314 -4 1315 0
1314 4 -1315 0
-1315 -10 -1316 0
-1315 10 1316 0
1315 -10 1316 0
1315 10 -1316 0
-1316 -11 -1317 0
-1316 11 1317 0
1316 -11 1317 0
1316 11 -1317 0
-1317 -13 -1318 0
-1317 13 1318 0
1317 -13 1318 0
1317 13 -1318 0
-1318 -14 -1319 0
-1318 14 1319 0
1318 -14 1319 0
1318 14 -1319 0
-1319 -20 -1320 0
-1319 20 1320 0
1319 -20 1320 0
1319 20 -1320 0
-1320 -31 -1321 0
-1320 31 1321 0
1320 -31 1321 0
1320 31 -1321 0
-1321 -33 -1322 0
-1321 33 1322 0
1321 -33 1322 0
1321 33 -1322 0
-1322 -34 -1323 0
-1322 34 1323 0
1322 -34 1323 0
1322 34 -1323 0
-1323 -40 -1324 0
-1323 40 1324 0
1323 -40 1324 0
1323 40 -1324 0
1313 1324 0
-2 -3 -1325 0
-2 3 1325 0
2 -3 1325 0
2 3 -1325 0
-1325 -4 -1326 0
-1325 4 1326 0
1325 -4 1326 0
1325 4 -1326 0
-1326 -10 -1327 0
-1326 10 1327 0
1326 -10 1327 0
1326 10 -1327 0
-1327 -12 -1328 0
-1327 12 1328 0
1327 -12 1328 0
1327 12 -1328 0
-1328 -13 -1329 0
-1328 13 1329 0
1328 -13 1329 0
1328 13 -1329 0
-1329 -14 -1330 0
-1329 14 1330 0
1329 -14 1330 0
1329 14 -1330 0
-1330 -20 -1331 0
-1330 20 1331 0
1330 -20 1331 0
1330 20 -1331 0
-1331 -22 -1332 0
-1331 22 1332 0
1331 -22 1332 0
1331 22 -1332 0
-1332 -23 -1333 0
-1332 23 1333 0
1332 -23 1333 0
1332 23 -1333 0
-1333 -24 -1334 0
-1333 24 1334 0
1333 -24 1334 0
1333 24 -1334 0
-1334 -30 -1335 0
-1334 30 1335 0
1334 -30 1335 0
1334 30 -1335 0
-2 -3 -1336 0
-2 3 1336 0
2 -3 1336 0
2 3 -1336 0
-1336 -4 -1337 0
-1336 4 1337 0
1336 -4 1337 0
1336 4 -1337 0
-1337 -10 -1338 0
-1337 10 1338 0
1337 -10 1338 0
1337 10 -1338 0
-1338 -12 -1339 0
-1338 12 1339 0
1338 -12 1339 0
1338 12 -1339 0
-1339 -13 -1340 0
-1339 13 1340 0
1339 -13 1340 0
1339 13 -1340 0
-1340 -14 -1341 0
-1340 14 1341 0
1340 -14 1341 0
1340 14 -1341 0
-1341 -20 -1342 0
-1341 20 1342 0
1341 -20 1342 0
1341 20 -1342 0
-1342 -32 -1343 0
-1342 32 1343 0
1342 -32 1343 0
1342 32 -1343 0
-1343 -33 -1344 0
-1343 33 1344 0
1343 -33 1344 0
1343 33 -1344 0
-1344 -34 -1345 0
-1344 34 1345 0
1344 -34 1345 0
1344 34 -1345 0
-1345 -40 -1346 0
-1345 40 1346 0
1345 -40 1346 0
1345 40 -1346 0
1335 1346 0
-25 -26 -1347 0
-25 26 1347 0
25 -26 1347 0
25 26 -1347 0
-1347 -30 -1348 0
-1347 30 1348 0
1347 -30 1348 0
1347 30 -1348 0
-5 -6 -1349 0
-5 6 1349 0
5 -6 1349 0
5 6 -1349 0
-1349 -10 -1350 0
-1349 10 1350 0
1349 -10 1350 0
1349 10 -1350 0
-1350 -15 -1351 0
-1350 15 1351 0
1350 -15 1351 0
1350 15 -1351 0
-1351 -16 -1352 0
-1351 16 1352 0
1351 -16 1352 0
1351 16 -1352 0
-1352 -20 -1353 0
-1352 20 1353 0
1352 -20 1353 0
1352 20 -1353 0
-1353 -35 -1354 0
-1353 35 1354 0
1353 -35 1354 0
1353 35 -1354 0
-1354 -36 -1355 0
-1354 36 1355 0
1354 -36 1355 0
1354 36 -1355 0
-1355 -40 -1356 0
-1355 40 1356 0
1355 -40 1356 0
1355 40 -1356 0
1348 1356 0
-21 -22 -1357 0
-21 22 1357 0
21 -22 1357 0
21 22 -1357 0
-1357 -25 -1358 0
-1357 25 1358 0
1357 -25 1358 0
1357 25 -1358 0
-1358 -26 -1359 0
-1358 26 1359 0
1358 -26 1359 0
1358 26 -1359 0
-1359 -30 -1360 0
-1359 30 1360 0
1359 -30 1360 0
1359 30 -1360 0
-1 -2 -1361 0
-1 2 1361 0
1 -2 1361 0
1 2 -1361 0
-1361 -5 -1362 0
-1361 5 1362 0
1361 -5 1362 0
1361 5 -1362 0
-1362 -6 -1363 0
-1362 6 1363 0
1362 -6 1363 0
1362 6 -1363 0
-1363 -10 -1364 0
-1363 10 1364 0
1363 -10 1364 0
1363 10 -1364 0
-1364 -11 -1365 0
-1364 11 1365 0
1364 -11 1365 0
1364 11 -1365 0
-1365 -12 -1366 0
-1365 12 1366 0
1365 -12 1366 0
1365 12 -1366 0
-1366 -15 -1367 0
-1366 15 1367 0
1366 -15 1367 0
1366 15 -1367 0
-1367 -16 -1368 0
-1367 16 1368 0
1367 -16 1368 0
1367 16 -1368 0
-1368 -20 -1369 0
-1368 20 1369 0
1368 -20 1369 0
1368 20 -1369 0
-1369 -31 -1370 0
-1369 31 1370 0
1369 -31 1370 0
1369 31 -1370 0
-1370 -32 -1371 0
-1370 32 1371 0
1370 -32 1371 0
1370 32 -1371 0
-1371 -35 -1372 0
-1371 35 1372 0
1371 -35 1372 0
1371 35 -1372 0
-1372 -36 -1373 0
-1372 36 1373 0
1372 -36 1373 0
1372 36 -1373 0
-1373 -40 -1374 0
-1373 40 1374 0
1373 -40 1374 0
1373 40 -1374 0
1360 1374 0
-11 -12 -1375 0
-11 12 1375 0
11 -12 1375 0
11 12 -1375 0
-1375 -13 -1376 0
-1375 13 1376 0
1375 -13 1376 0
1375 13 -1376 0
-1376 -14 -1377 0
-1376 14 1377 0
1376 -14 1377 0
1376 14 -1377 0
-1377 -16 -1378 0
-1377 16 1378 0
1377 -16 1378 0
1377 16 -1378 0
-1378 -17 -1379 0
-1378 17 1379 0
1378 -17 1379 0
1378 17 -1379 0
-1379 -20 -1380 0
-1379 20 1380 0
1379 -20 1380 0
1379 20 -1380 0
-1380 -21 -1381 0
-1380 21 1381 0
1380 -21 1381 0
1380 21 -1381 0
-1381 -22 -1382 0
-1381 22 1382 0
1381 -22 1382 0
1381 22 -1382 0
-1382 -23 -1383 0
-1382 23 1383 0
1382 -23 1383 0
1382 23 -1383 0
-1383 -24 -1384 0
-1383 24 1384 0
1383 -24 1384 0
1383 24 -1384 0
-1384 -26 -1385 0
-1384 26 1385 0
1384 -26 1385 0
1384 26 -1385 0
-1385 -27 -1386 0
-1385 27 1386 0
1385 -27 1386 0
1385 27 -1386 0
-1386 -30 -1387 0
-1386 30 1387 0
1386 -30 1387 0
1386 30 -1387 0
-1 -2 -1388 0
-1 2 1388 0
1 -2 1388 0
1 2 -1388 0
-1388 -3 -1389 0
-1388 3 1389 0
1388 -3 1389 0
1388 3 -1389 0
-1389 -4 -1390 0
-1389 4 1390 0
1389 -4 1390 0
1389 4 -1390 0
-1390 -6 -1391 0
-1390 6 1391 0
1390 -6 1391 0
1390 6 -1391 0
-1391 -7 -1392 0
-1391 7 1392 0
1391 -7 1392 0
1391 7 -1392 0
-1392 -10 -1393 0
-1392 10 1393 0
1392 -10 1393 0
1392 10 -1393 0
-1393 -31 -1394 0
-1393 31 1394 0
1393 -31 1394 0
1393 31 -1394 0
-1394 -32 -1395 0
-1394 32 1395 0
1394 -32 1395 0
1394 32 -1395 0
-1395 -33 -1396 0
-1395 33 1396 0
1395 -33 1396 0
1395 33 -1396 0
-1396 -34 -1397 0
-1396 34 1397 0
1396 -34 1397 0
1396 34 -1397 0
-1397 -36 -1398 0
-1397 36 1398 0
1397 -36 1398 0
1397 36 -1398 0
-1398 -37 -1399 0
-1398 37 1399 0
1398 -37 1399 0
1398 37 -1399 0
-1399 -40 -1400 0
-1399 40 1400 0
1399 -40 1400 0
1399 40 -1400 0
1387 1400 0
-1 -3 -1401 0
-1 3 1401 0
1 -3 1401 0
1 3 -1401 0
-1401 -4 -1402 0
-1401 4 1402 0
1401 -4 1402 0
1401 4 -1402 0
-1402 -5 -1403 0
-1402 5 1403 0
1402 -5 1403 0
1402 5 -1403 0
-1403 -6 -1404 0
-1403 6 1404 0
1403 -6 1404 0
1403 6 -1404 0
-1404 -7 -1405 0
-1404 7 1405 0
1404 -7 1405 0
1404 7 -1405 0
-1405 -10 -1406 0
-1405 10 1406 0
1405 -10 1406 0
1405 10 -1406 0
-1406 -21 -1407 0
-1406 21 1407 0
1406 -21 1407 0
1406 21 -1407 0
-1407 -23 -1408 0
-1407 23 1408 0
1407 -23 1408 0
1407 23 -1408 0
-1408 -24 -1409 0
-1408 24 1409 0
1408 -24 1409 0
1408 24 -1409 0
-1409 -25 -1410 0
-1409 25 1410 0
1409 -25 1410 0
1409 25 -1410 0
-1410 -26 -1411 0
-1410 26 1411 0
1410 -26 1411 0
1410 26 -1411 0
-1411 -27 -1412 0
-1411 27 1412 0
1411 -27 1412 0
1411 27 -1412 0
-1412 -30 -1413 0
-1412 30 1413 0
1412 -30 1413 0
1412 30 -1413 0
-1 -3 -1414 0
-1 3 1414 0
1 -3 1414 0
1 3 -1414 0
-1414 -4 -1415 0
-1414 4 1415 0
1414 -4 1415 0
1414 4 -1415 0
-1415 -5 -1416 0
-1415 5 1416 0
1415 -5 1416 0
1415 5 -1416 0
-1416 -6 -1417 0
-1416 6 1417 0
1416 -6 1417 0
1416 6 -1417 0
-1417 -7 -1418 0
-1417 7 1418 0
1417 -7 1418 0
1417 7 -1418 0
-1418 -10 -1419 0
-1418 10 1419 0
1418 -10 1419 0
1418 10 -1419 0
-1419 -11 -1420 0
-1419 11 1420 0
1419 -11 1420 0
1419 11 -1420 0
-1420 -13 -1421 0
-1420 13 1421 0
1420 -13 1421 0
1420 13 -1421 0
-1421 -14 -1422 0
-1421 14 1422 0
1421 -14 1422 0
1421 14 -1422 0
-1422 -15 -1423 0
-1422 15 1423 0
1422 -15 1423 0
1422 15 -1423 0
-1423 -16 -1424 0
-1423 16 1424 0
1423 -16 1424 0
1423 16 -1424 0
-1424 -17 -1425 0
-1424 17 1425 0
1424 -17 1425 0
1424 17 -1425 0
-1425 -20 -1426 0
-1425 20 1426 0
1425 -20 1426 0
1425 20 -1426 0
-1426 -31 -1427 0
-1426 31 1427 0
1426 -31 1427 0
1426 31 -1427 0
-1427 -33 -1428 0
-1427 33 1428 0
1427 -33 1428 0
1427 33 -1428 0
-1428 -34 -1429 0
-1428 34 1429 0
1428 -34 1429 0
1428 34 -1429 0
-1429 -35 -1430 0
-1429 35 1430 0
1429 -35 1430 0
1429 35 -1430 0
-1430 -36 -1431 0
-1430 36 1431 0
1430 -36 1431 0
1430 36 -1431 0
-1431 -37 -1432 0
-1431 37 1432 0
1431 -37 1432 0
1431 37 -1432 0
-1432 -40 -1433 0
-1432 40 1433 0
1432 -40 1433 0
1432 40 -1433 0
1413 1433 0
-11 -14 -1434 0
-11 14 1434 0
11 -14 1434 0
11 14 -1434 0
-1434 -15 -1435 0
-1434 15 1435 0
1434 -15 1435 0
1434 15 -1435 0
-1435 -18 -1436 0
-1435 18 1436 0
1435 -18 1436 0
1435 18 -1436 0
-1436 -20 -1437 0
-1436 20 1437 0
1436 -20 1437 0
1436 20 -1437 0
-1437 -21 -1438 0
-1437 21 1438 0
1437 -21 1438 0
1437 21 -1438 0
-1438 -24 -1439 0
-1438 24 1439 0
1438 -24 1439 0
1438 24 -1439 0
-1439 -25 -1440 0
-1439 25 1440 0
1439 -25 1440 0
1439 25 -1440 0
-1440 -28 -1441 0
-1440 28 1441 0
1440 -28 1441 0
1440 28 -1441 0
-1441 -30 -1442 0
-1441 30 1442 0
1441 -30 1442 0
1441 30 -1442 0
-1 -4 -1443 0
-1 4 1443 0
1 -4 1443 0
1 4 -1443 0
-1443 -5 -1444 0
-1443 5 1444 0
1443 -5 1444 0
1443 5 -1444 0
-1444 -8 -1445 0
-1444 8 1445 0
1444 -8 1445 0
1444 8 -1445 0
-1445 -10 -1446 0
-1445 10 1446 0
1445 -10 1446 0
1445 10 -1446 0
-1446 -31 -1447 0
-1446 31 1447 0
1446 -31 1447 0
1446 31 -1447 0
-1447 -34 -1448 0
-1447 34 1448 0
1447 -34 1448 0
1447 34 -1448 0
-1448 -35 -1449 0
-1448 35 1449 0
1448 -35 1449 0
1448 35 -1449 0
-1449 -38 -1450 0
-1449 38 1450 0
1449 -38 1450 0
1449 38 -1450 0
-1450 -40 -1451 0
-1450 40 1451 0
1450 -40 1451 0
1450 40 -1451 0
1442 1451 0
-21 -22 -1452 0
-21 22 1452 0
21 -22 1452 0
21 22 -1452 0
-1452 -24 -1453 0
-1452 24 1453 0
1452 -24 1453 0
1452 24 -1453 0
-1453 -25 -1454 0
-1453 25 1454 0
1453 -25 1454 0
1453 25 -1454 0
-1454 -28 -1455 0
-1454 28 1455 0
1454 -28 1455 0
1454 28 -1455 0
-1455 -30 -1456 0
-1455 30 1456 0
1455 -30 1456 0
1455 30 -1456 0
-1 -2 -1457 0
-1 2 1457 0
1 -2 1457 0
1 2 -1457 0
-1457 -4 -1458 0
-1457 4 1458 0
1457 -4 1458 0
1457 4 -1458 0
-1458 -5 -1459 0
-1458 5 1459 0
1458 -5 1459 0
1458 5 -1459 0
-1459 -8 -1460 0
-1459 8 1460 0
1459 -8 1460 0
1459 8 -1460 0
-1460 -10 -1461 0
-1460 10 1461 0
1460 -10 1461 0
1460 10 -1461 0
-1461 -31 -1462 0
-1461 31 1462 0
1461 -31 1462 0
1461 31 -1462 0
-1462 -32 -1463 0
-1462 32 1463 0
1462 -32 1463 0
1462 32 -1463 0
-1463 -34 -1464 0
-1463 34 1464 0
1463 -34 1464 0
1463 34 -1464 0
-1464 -35 -1465 0
-1464 35 1465 0
1464 -35 1465 0
1464 35 -1465 0
-1465 -38 -1466 0
-1465 38 1466 0
1465 -38 1466 0
1465 38 -1466 0
-1466 -40 -1467 0
-1466 40 1467 0
1466 -40 1467 0
1466 40 -1467 0
1456 1467 0
-2 -3 -1468 0
-2 3 1468 0
2 -3 1468 0
2 3 -1468 0
-1468 -4 -1469 0
-1468 4 1469 0
1468 -4 1469 0
1468 4 -1469 0
-1469 -6 -1470 0
-1469 6 1470 0
1469 -6 1470 0
1469 6 -1470 0
-1470 -7 -1471 0
-1470 7 1471 0
1470 -7 1471 0
1470 7 -1471 0
-1471 -8 -1472 0
-1471 8 1472 0
1471 -8 1472 0
1471 8 -1472 0
-1472 -10 -1473 0
-1472 10 1473 0
1472 -10 1473 0
1472 10 -1473 0
-1473 -12 -1474 0
-1473 12 1474 0
1473 -12 1474 0
1473 12 -1474 0
-1474 -13 -1475 0
-1474 13 1475 0
1474 -13 1475 0
1474 13 -1475 0
-1475 -14 -1476 0
-1475 14 1476 0
1475 -14 1476 0
1475 14 -1476 0
-1476 -16 -1477 0
-1476 16 1477 0
1476 -16 1477 0
1476 16 -1477 0
-1477 -17 -1478 0
-1477 17 1478 0
1477 -17 1478 0
1477 17 -1478 0
-1478 -18 -1479 0
-1478 18 1479 0
1478 -18 1479 0
1478 18 -1479 0
-1479 -20 -1480 0
-1479 20 1480 0
1479 -20 1480 0
1479 20 -1480 0
-1480 -22 -1481 0
-1480 22 1481 0
1480 -22 1481 0
1480 22 -1481 0
-1481 -23 -1482 0
-1481 23 1482 0
1481 -23 1482 0
1481 23 -1482 0
-1482 -24 -1483 0
-1482 24 1483 0
1482 -24 1483 0
1482 24 -1483 0
-1483 -26 -1484 0
-1483 26 1484 0
1483 -26 1484 0
1483 26 -1484 0
-1484 -27 -1485 0
-1484 27 1485 0
1484 -27 1485 0
1484 27 -1485 0
-1485 -28 -1486 0
-1485 28 1486 0
1485 -28 1486 0
1485 28 -1486 0
-1486 -30 -1487 0
-1486 30 1487 0
1486 -30 1487 0
1486 30 -1487 0
-2 -3 -1488 0
-2 3 1488 0
2 -3 1488 0
2 3 -1488 0
-1488 -4 -1489 0
-1488 4 1489 0
1488 -4 1489 0
1488 4 -1489 0
-1489 -6 -1490 0
-1489 6 1490 0
1489 -6 1490 0
1489 6 -1490 0
-1490 -7 -1491 0
-1490 7 1491 0
1490 -7 1491 0
1490 7 -1491 0
-1491 -8 -1492 0
-1491 8 1492 0
1491 -8 1492 0
1491 8 -1492 0
-1492 -10 -1493 0
-1492 10 1493 0
1492 -10 1493 0
1492 10 -1493 0
-1493 -12 -1494 0
-1493 12 1494 0
1493 -12 1494 0
1493 12 -1494 0
-1494 -13 -1495 0
-1494 13 1495 0
1494 -13 1495 0
1494 13 -1495 0
-1495 -14 -1496 0
-1495 14 1496 0
1495 -14 1496 0
1495 14 -1496 0
-1496 -16 -1497 0
-1496 16 1497 0
1496 -16 1497 0
1496 16 -1497 0
-1497 -17 -1498 0
-1497 17 1498 0
1497 -17 1498 0
1497 17 -1498 0
-1498 -18 -1499 0
-1498 18 1499 0
1498 -18 1499 0
1498 18 -1499 0
-1499 -20 -1500 0
-1499 20 1500 0
1499 -20 1500 0
1499 20 -1500 0
-1500 -32 -1501 0
-1500 32 1501 0
1500 -32 1501 0
1500 32 -1501 0
-1501 -33 -1502 0
-1501 33 1502 0
1501 -33 1502 0
1501 33 -1502 0
-1502 -34 -1503 0
-1502 34 1503 0
1502 -34 1503 0
1502 34 -1503 0
-1503 -36 -1504 0
-1503 36 1504 0
1503 -36 1504 0
1503 36 -1504 0
-1504 -37 -1505 0
-1504 37 1505 0
1504 -37 1505 0
1504 37 -1505 0
-1505 -38 -1506 0
-1505 38 1506 0
1505 -38 1506 0
1505 38 -1506 0
-1506 -40 -1507 0
-1506 40 1507 0
1506 -40 1507 0
1506 40 -1507 0
1487 1507 0
-19 -20 -1508 0
-19 20 1508 0
19 -20 1508 0
19 20 -1508 0
-1508 -29 -1509 0
-1508 29 1509 0
1508 -29 1509 0
1508 29 -1509 0
-1509 -30 -1510 0
-1509 30 1510 0
1509 -30 1510 0
1509 30 -1510 0
-9 -10 -1511 0
-9 10 1511 0
9 -10 1511 0
9 10 -1511 0
-1511 -19 -1512 0
-1511 19 1512 0
1511 -19 1512 0
1511 19 -1512 0
-1512 -20 -1513 0
-1512 20 1513 0
1512 -20 1513 0
1512 20 -1513 0
-1513 -39 -1514 0
-1513 39 1514 0
1513 -39 1514 0
1513 39 -1514 0
-1514 -40 -1515 0
-1514 40 1515 0
1514 -40 1515 0
1514 40 -1515 0
1510 1515 0
-11 -19 -1516 0
-11 19 1516 0
11 -19 1516 0
11 19 -1516 0
-1516 -20 -1517 0
-1516 20 1517 0
1516 -20 1517 0
1516 20 -1517 0
-1517 -21 -1518 0
-1517 21 1518 0
1517 -21 1518 0
1517 21 -1518 0
-1518 -29 -1519 0
-1518 29 1519 0
1518 -29 1519 0
1518 29 -1519 0
-1519 -30 -1520 0
-1519 30 1520 0
1519 -30 1520 0
1519 30 -1520 0
-11 -19 -1521 0
-11 19 1521 0
11 -19 1521 0
11 19 -1521 0
-1521 -20 -1522 0
-1521 20 1522 0
1521 -20 1522 0
1521 20 -1522 0
-1522 -31 -1523 0
-1522 31 1523 0
1522 -31 1523 0
1522 31 -1523 0
-1523 -39 -1524 0
-1523 39 1524 0
1523 -39 1524 0
1523 39 -1524 0
-1524 -40 -1525 0
-1524 40 1525 0
1524 -40 1525 0
1524 40 -1525 0
1520 1525 0
-1 -2 -1526 0
-1 2 1526 0
1 -2 1526 0
1 2 -1526 0
-1526 -9 -1527 0
-1526 9 1527 0
1526 -9 1527 0
1526 9 -1527 0
-1527 -10 -1528 0
-1527 10 1528 0
1527 -10 1528 0
1527 10 -1528 0
-1528 -11 -1529 0
-1528 11 1529 0
1528 -11 1529 0
1528 11 -1529 0
-1529 -12 -1530 0
-1529 12 1530 0
1529 -12 1530 0
1529 12 -1530 0
-1530 -19 -1531 0
-1530 19 1531 0
1530 -19 1531 0
1530 19 -1531 0
-1531 -20 -1532 0
-1531 20 1532 0
1531 -20 1532 0
1531 20 -1532 0
-1532 -21 -1533 0
-1532 21 1533 0
1532 -21 1533 0
1532 21 -1533 0
-1533 -22 -1534 0
-1533 22 1534 0
1533 -22 1534 0
1533 22 -1534 0
-1534 -29 -1535 0
-1534 29 1535 0
1534 -29 1535 0
1534 29 -1535 0
-1535 -30 -1536 0
-1535 30 1536 0
1535 -30 1536 0
1535 30 -1536 0
-1 -2 -1537 0
-1 2 1537 0
1 -2 1537 0
1 2 -1537 0
-1537 -9 -1538 0
-1537 9 1538 0
1537 -9 1538 0
1537 9 -1538 0
-1538 -10 -1539 0
-1538 10 1539 0
1538 -10 1539 0
1538 10 -1539 0
-1539 -11 -1540 0
-1539 11 1540 0
1539 -11 1540 0
1539 11 -1540 0
-1540 -12 -1541 0
-1540 12 1541 0
1540 -12 1541 0
1540 12 -1541 0
-1541 -19 -1542 0
-1541 19 1542 0
1541 -19 1542 0
1541 19 -1542 0
-1542 -20 -1543 0
-1542 20 1543 0
1542 -20 1543 0
1542 20 -1543 0
-1543 -31 -1544 0
-1543 31 1544 0
1543 -31 1544 0
1543 31 -1544 0
-1544 -32 -1545 0
-1544 32 1545 0
1544 -32 1545 0
1544 32 -1545 0
-1545 -39 -1546 0
-1545 39 1546 0
1545 -39 1546 0
1545 39 -1546 0
-1546 -40 -1547 0
-1546 40 1547 0
1546 -40 1547 0
1546 40 -1547 0
1536 1547 0
-1 -3 -1548 0
-1 3 1548 0
1 -3 1548 0
1 3 -1548 0
-1548 -4 -1549 0
-1548 4 1549 0
1548 -4 1549 0
1548 4 -1549 0
-1549 -9 -1550 0
-1549 9 1550 0
1549 -9 1550 0
1549 9 -1550 0
-1550 -10 -1551 0
-1550 10 1551 0
1550 -10 1551 0
1550 10 -1551 0
-1551 -11 -1552 0
-1551 11 1552 0
1551 -11 1552 0
1551 11 -1552 0
-1552 -13 -1553 0
-1552 13 1553 0
1552 -13 1553 0
1552 13 -1553 0
-1553 -14 -1554 0
-1553 14 1554 0
1553 -14 1554 0
1553 14 -1554 0
-1554 -19 -1555 0
-1554 19 1555 0
1554 -19 1555 0
1554 19 -1555 0
-1555 -20 -1556 0
-1555 20 1556 0
1555 -20 1556 0
1555 20 -1556 0
-1556 -21 -1557 0
-1556 21 1557 0
1556 -21 1557 0
1556 21 -1557 0
-1557 -23 -1558 0
-1557 23 1558 0
1557 -23 1558 0
1557 23 -1558 0
-1558 -24 -1559 0
-1558 24 1559 0
1558 -24 1559 0
1558 24 -1559 0
-1559 -29 -1560 0
-1559 29 1560 0
1559 -29 1560 0
1559 29 -1560 0
-1560 -30 -1561 0
-1560 30 1561 0
1560 -30 1561 0
1560 30 -1561 0
-1 -3 -1562 0
-1 3 1562 0
1 -3 1562 0
1 3 -1562 0
-1562 -4 -1563 0
-1562 4 1563 0
1562 -4 1563 0
1562 4 -1563 0
-1563 -9 -1564 0
-1563 9 1564 0
1563 -9 1564 0
1563 9 -1564 0
-1564 -10 -1565 0
-1564 10 1565 0
1564 -10 1565 0
1564 10 -1565 0
-1565 -31 -1566 0
-1565 31 1566 0
1565 -31 1566 0
1565 31 -1566 0
-1566 -33 -1567 0
-1566 33 1567 0
1566 -33 1567 0
1566 33 -1567 0
-1567 -34 -1568 0
-1567 34 1568 0
1567 -34 1568 0
1567 34 -1568 0
-1568 -39 -1569 0
-1568 39 1569 0
1568 -39 1569 0
1568 39 -1569 0
-1569 -40 -1570 0
-1569 40 1570 0
1569 -40 1570 0
1569 40 -1570 0
1561 1570 0
-12 -13 -1571 0
-12 13 1571 0
12 -13 1571 0
12 13 -1571 0
-1571 -14 -1572 0
-1571 14 1572 0
1571 -14 1572 0
1571 14 -1572 0
-1572 -15 -1573 0
-1572 15 1573 0
1572 -15 1573 0
1572 15 -1573 0
-1573 -19 -1574 0
-1573 19 1574 0
1573 -19 1574 0
1573 19 -1574 0
-1574 -20 -1575 0
-1574 20 1575 0
1574 -20 1575 0
1574 20 -1575 0
-1575 -22 -1576 0
-1575 22 1576 0
1575 -22 1576 0
1575 22 -1576 0
-1576 -23 -1577 0
-1576 23 1577 0
1576 -23 1577 0
1576 23 -1577 0
-1577 -24 -1578 0
-1577 24 1578 0
1577 -24 1578 0
1577 24 -1578 0
-1578 -25 -1579 0
-1578 25 1579 0
1578 -25 1579 0
1578 25 -1579 0
-1579 -29 -1580 0
-1579 29 1580 0
1579 -29 1580 0
1579 29 -1580 0
-1580 -30 -1581 0
-1580 30 1581 0
1580 -30 1581 0
1580 30 -1581 0
-12 -13 -1582 0
-12 13 1582 0
12 -13 1582 0
12 13 -1582 0
-1582 -14 -1583 0
-1582 14 1583 0
1582 -14 1583 0
1582 14 -1583 0
-1583 -15 -1584 0
-1583 15 1584 0
1583 -15 1584 0
1583 15 -1584 0
-1584 -19 -1585 0
-1584 19 1585 0
1584 -19 1585 0
1584 19 -1585 0
-1585 -20 -1586 0
-1585 20 1586 0
1585 -20 1586 0
1585 20 -1586 0
-1586 -32 -1587 0
-1586 32 1587 0
1586 -32 1587 0
1586 32 -1587 0
-1587 -33 -1588 0
-1587 33 1588 0
1587 -33 1588 0
1587 33 -1588 0
-1588 -34 -1589 0
-1588 34 1589 0
1588 -34 1589 0
1588 34 -1589 0
-1589 -35 -1590 0
-1589 35 1590 0
1589 -35 1590 0
1589 35 -1590 0
-1590 -39 -1591 0
-1590 39 1591 0
1590 -39 1591 0
1590 39 -1591 0
-1591 -40 -1592 0
-1591 40 1592 0
1591 -40 1592 0
1591 40 -1592 0
1581 1592 0
-5 -7 -1593 0
-5 7 1593 0
5 -7 1593 0
5 7 -1593 0
-1593 -9 -1594 0
-1593 9 1594 0
1593 -9 1594 0
1593 9 -1594 0
-1594 -10 -1595 0
-1594 10 1595 0
1594 -10 1595 0
1594 10 -1595 0
-1595 -15 -1596 0
-1595 15 1596 0
1595 -15 1596 0
1595 15 -1596 0
-1596 -17 -1597 0
-1596 17 1597 0
1596 -17 1597 0
1596 17 -1597 0
-1597 -19 -1598 0
-1597 19 1598 0
1597 -19 1598 0
1597 19 -1598 0
-1598 -20 -1599 0
-1598 20 1599 0
1598 -20 1599 0
1598 20 -1599 0
-1599 -25 -1600 0
-1599 25 1600 0
1599 -25 1600 0
1599 25 -1600 0
-1600 -27 -1601 0
-1600 27 1601 0
1600 -27 1601 0
1600 27 -1601 0
-1601 -29 -1602 0
-1601 29 1602 0
1601 -29 1602 0
1601 29 -1602 0
-1602 -30 -1603 0
-1602 30 1603 0
1602 -30 1603 0
1602 30 -1603 0
-15 -17 -1604 0
-15 17 1604 0
15 -17 1604 0
15 17 -1604 0
-1604 -19 -1605 0
-1604 19 1605 0
1604 -19 1605 0
1604 19 -1605 0
-1605 -20 -1606 0
-1605 20 1606 0
1605 -20 1606 0
1605 20 -1606 0
-1606 -35 -1607 0
-1606 35 1607 0
1606 -35 1607 0
1606 35 -1607 0
-1607 -37 -1608 0
-1607 37 1608 0
1607 -37 1608 0
1607 37 -1608 0
-1608 -39 -1609 0
-1608 39 1609 0
1608 -39 1609 0
1608 39 -1609 0
-1609 -40 -1610 0
-1609 40 1610 0
1609 -40 1610 0
1609 40 -1610 0
1603 1610 0
-2 -4 -1611 0
-2 4 1611 0
2 -4 1611 0
2 4 -1611 0
-1611 -5 -1612 0
-1611 5 1612 0
1611 -5 1612 0
1611 5 -1612 0
-1612 -7 -1613 0
-1612 7 1613 0
1612 -7 1613 0
1612 7 -1613 0
-1613 -9 -1614 0
-1613 9 1614 0
1613 -9 1614 0
1613 9 -1614 0
-1614 -10 -1615 0
-1614 10 1615 0
1614 -10 1615 0
1614 10 -1615 0
-1615 -22 -1616 0
-1615 22 1616 0
1615 -22 1616 0
1615 22 -1616 0
-1616 -24 -1617 0
-1616 24 1617 0
1616 -24 1617 0
1616 24 -1617 0
-1617 -25 -1618 0
-1617 25 1618 0
1617 -25 1618 0
1617 25 -1618 0
-1618 -27 -1619 0
-1618 27 1619 0
1618 -27 1619 0
1618 27 -1619 0
-1619 -29 -1620 0
-1619 29 1620 0
1619 -29 1620 0
1619 29 -1620 0
-1620 -30 -1621 0
-1620 30 1621 0
1620 -30 1621 0
1620 30 -1621 0
-12 -14 -1622 0
-12 14 1622 0
12 -14 1622 0
12 14 -1622 0
-1622 -15 -1623 0
-1622 15 1623 0
1622 -15 1623 0
1622 15 -1623 0
-1623 -17 -1624 0
-1623 17 1624 0
1623 -17 1624 0
1623 17 -1624 0
-1624 -19 -1625 0
-1624 19 1625 0
1624 -19 1625 0
1624 19 -1625 0
-1625 -20 -1626 0
-1625 20 1626 0
1625 -20 1626 0
1625 20 -1626 0
-1626 -32 -1627 0
-1626 32 1627 0
1626 -32 1627 0
1626 32 -1627 0
-1627 -34 -1628 0
-1627 34 1628 0
1627 -34 1628 0
1627 34 -1628 0
-1628 -35 -1629 0
-1628 35 1629 0
1628 -35 1629 0
1628 35 -1629 0
-1629 -37 -1630 0
-1629 37 1630 0
1629 -37 1630 0
1629 37 -1630 0
-1630 -39 -1631 0
-1630 39 1631 0
1630 -39 1631 0
1630 39 -1631 0
-1631 -40 -1632 0
-1631 40 1632 0
1631 -40 1632 0
1631 40 -1632 0
1621 1632 0
-15 -18 -1633 0
-15 18 1633 0
15 -18 1633 0
15 18 -1633 0
-1633 -19 -1634 0
-1633 19 1634 0
1633 -19 1634 0
1633 19 -1634 0
-1634 -20 -1635 0
-1634 20 1635 0
1634 -20 1635 0
1634 20 -1635 0
-1635 -25 -1636 0
-1635 25 1636 0
1635 -25 1636 0
1635 25 -1636 0
-1636 -28 -1637 0
-1636 28 1637 0
1636 -28 1637 0
1636 28 -1637 0
-1637 -29 -1638 0
-1637 29 1638 0
1637 -29 1638 0
1637 29 -1638 0
-1638 -30 -1639 0
-1638 30 1639 0
1638 -30 1639 0
1638 30 -1639 0
-5 -8 -1640 0
-5 8 1640 0
5 -8 1640 0
5 8 -1640 0
-1640 -9 -1641 0
-1640 9 1641 0
1640 -9 1641 0
1640 9 -1641 0
-1641 -10 -1642 0
-1641 10 1642 0
1641 -10 1642 0
1641 10 -1642 0
-1642 -15 -1643 0
-1642 15 1643 0
1642 -15 1643 0
1642 15 -1643 0
-1643 -18 -1644 0
-1643 18 1644 0
1643 -18 1644 0
1643 18 -1644 0
-1644 -19 -1645 0
-1644 19 1645 0
1644 -19 1645 0
1644 19 -1645 0
-1645 -20 -1646 0
-1645 20 1646 0
1645 -20 1646 0
1645 20 -1646 0
-1646 -35 -1647 0
-1646 35 1647 0
1646 -35 1647 0
1646 35 -1647 0
-1647 -38 -1648 0
-1647 38 1648 0
1647 -38 1648 0
1647 38 -1648 0
-1648 -39 -1649 0
-1648 39 1649 0
1648 -39 1649 0
1648 39 -1649 0
-1649 -40 -1650 0
-1649 40 1650 0
1649 -40 1650 0
1649 40 -1650 0
1639 1650 0
-5 -6 -1651 0
-5 6 1651 0
5 -6 1651 0
5 6 -1651 0
-1651 -8 -1652 0
-1651 8 1652 0
1651 -8 1652 0
1651 8 -1652 0
-1652 -9 -1653 0
-1652 9 1653 0
1652 -9 1653 0
1652 9 -1653 0
-1653 -10 -1654 0
-1653 10 1654 0
1653 -10 1654 0
1653 10 -1654 0
-1654 -15 -1655 0
-1654 15 1655 0
1654 -15 1655 0
1654 15 -1655 0
-1655 -16 -1656 0
-1655 16 1656 0
1655 -16 1656 0
1655 16 -1656 0
-1656 -18 -1657 0
-1656 18 1657 0
1656 -18 1657 0
1656 18 -1657 0
-1657 -19 -1658 0
-1657 19 1658 0
1657 -19 1658 0
1657 19 -1658 0
-1658 -20 -1659 0
-1658 20 1659 0
1658 -20 1659 0
1658 20 -1659 0
-1659 -25 -1660 0
-1659 25 1660 0
1659 -25 1660 0
1659 25 -1660 0
-1660 -26 -1661 0
-1660 26 1661 0
1660 -26 1661 0
1660 26 -1661 0
-1661 -28 -1662 0
-1661 28 1662 0
1661 -28 1662 0
1661 28 -1662 0
-1662 -29 -1663 0
-1662 29 1663 0
1662 -29 1663 0
1662 29 -1663 0
-1663 -30 -1664 0
-1663 30 1664 0
1663 -30 1664 0
1663 30 -1664 0
-5 -6 -1665 0
-5 6 1665 0
5 -6 1665 0
5 6 -1665 0
-1665 -8 -1666 0
-1665 8 1666 0
1665 -8 1666 0
1665 8 -1666 0
-1666 -9 -1667 0
-1666 9 1667 0
1666 -9 1667 0
1666 9 -1667 0
-1667 -10 -1668 0
-1667 10 1668 0
1667 -10 1668 0
1667 10 -1668 0
-1668 -35 -1669 0
-1668 35 1669 0
1668 -35 1669 0
1668 35 -1669 0
-1669 -36 -1670 0
-1669 36 1670 0
1669 -36 1670 0
1669 36 -1670 0
-1670 -38 -1671 0
-1670 38 1671 0
1670 -38 1671 0
1670 38 -1671 0
-1671 -39 -1672 0
-1671 39 1672 0
1671 -39 1672 0
1671 39 -1672 0
-1672 -40 -1673 0
-1672 40 1673 0
1672 -40 1673 0
1672 40 -1673 0
1664 1673 0
-21 -25 -1674 0
-21 25 1674 0
21 -25 1674 0
21 25 -1674 0
-1674 -26 -1675 0
-1674 26 1675 0
1674 -26 1675 0
1674 26 -1675 0
-1675 -28 -1676 0
-1675 28 1676 0
1675 -28 1676 0
1675 28 -1676 0
-1676 -29 -1677 0
-1676 29 1677 0
1676 -29 1677 0
1676 29 -1677 0
-1677 -30 -1678 0
-1677 30 1678 0
1677 -30 1678 0
1677 30 -1678 0
-11 -15 -1679 0
-11 15 1679 0
11 -15 1679 0
11 15 -1679 0
-1679 -16 -1680 0
-1679 16 1680 0
1679 -16 1680 0
1679 16 -1680 0
-1680 -18 -1681 0
-1680 18 1681 0
1680 -18 1681 0
1680 18 -1681 0
-1681 -19 -1682 0
-1681 19 1682 0
1681 -19 1682 0
1681 19 -1682 0
-1682 -20 -1683 0
-1682 20 1683 0
1682 -20 1683 0
1682 20 -1683 0
-1683 -31 -1684 0
-1683 31 1684 0
1683 -31 1684 0
1683 31 -1684 0
-1684 -35 -1685 0
-1684 35 1685 0
1684 -35 1685 0
1684 35 -1685 0
-1685 -36 -1686 0
-1685 36 1686 0
1685 -36 1686 0
1685 36 -1686 0
-1686 -38 -1687 0
-1686 38 1687 0
1686 -38 1687 0
1686 38 -1687 0
-1687 -39 -1688 0
-1687 39 1688 0
1687 -39 1688 0
1687 39 -1688 0
-1688 -40 -1689 0
-1688 40 1689 0
1688 -40 1689 0
1688 40 -1689 0
1678 1689 0
-22 -25 -1690 0
-22 25 1690 0
22 -25 1690 0
22 25 -1690 0
-1690 -26 -1691 0
-1690 26 1691 0
1690 -26 1691 0
1690 26 -1691 0
-1691 -28 -1692 0
-1691 28 1692 0
1691 -28 1692 0
1691 28 -1692 0
-1692 -29 -1693 0
-1692 29 1693 0
1692 -29 1693 0
1692 29 -1693 0
-1693 -30 -1694 0
-1693 30 1694 0
1693 -30 1694 0
1693 30 -1694 0
-2 -5 -1695 0
-2 5 1695 0
2 -5 1695 0
2 5 -1695 0
-1695 -6 -1696 0
-1695 6 1696 0
1695 -6 1696 0
1695 6 -1696 0
-1696 -8 -1697 0
-1696 8 1697 0
1696 -8 1697 0
1696 8 -1697 0
-1697 -9 -1698 0
-1697 9 1698 0
1697 -9 1698 0
1697 9 -1698 0
-1698 -10 -1699 0
-1698 10 1699 0
1698 -10 1699 0
1698 10 -1699 0
-1699 -32 -1700 0
-1699 32 1700 0
1699 -32 1700 0
1699 32 -1700 0
-1700 -35 -1701 0
-1700 35 1701 0
1700 -35 1701 0
1700 35 -1701 0
-1701 -36 -1702 0
-1701 36 1702 0
1701 -36 1702 0
1701 36 -1702 0
-1702 -38 -1703 0
-1702 38 1703 0
1702 -38 1703 0
1702 38 -1703 0
-1703 -39 -1704 0
-1703 39 1704 0
1703 -39 1704 0
1703 39 -1704 0
-1704 -40 -1705 0
-1704 40 1705 0
1704 -40 1705 0
1704 40 -1705 0
1694 1705 0
-21 -22 -1706 0
-21 22 1706 0
21 -22 1706 0
21 22 -1706 0
-1706 -24 -1707 0
-1706 24 1707 0
1706 -24 1707 0
1706 24 -1707 0
-1707 -25 -1708 0
-1707 25 1708 0
1707 -25 1708 0
1707 25 -1708 0
-1708 -26 -1709 0
-1708 26 1709 0
1708 -26 1709 0
1708 26 -1709 0
-1709 -28 -1710 0
-1709 28 1710 0
1709 -28 1710 0
1709 28 -1710 0
-1710 -29 -1711 0
-1710 29 1711 0
1710 -29 1711 0
1710 29 -1711 0
-1711 -30 -1712 0
-1711 30 1712 0
1711 -30 1712 0
1711 30 -1712 0
-11 -12 -1713 0
-11 12 1713 0
11 -12 1713 0
11 12 -1713 0
-1713 -14 -1714 0
-1713 14 1714 0
1713 -14 1714 0
1713 14 -1714 0
-1714 -15 -1715 0
-1714 15 1715 0
1714 -15 1715 0
1714 15 -1715 0
-1715 -16 -1716 0
-1715 16 1716 0
1715 -16 1716 0
1715 16 -1716 0
-1716 -18 -1717 0
-1716 18 1717 0
1716 -18 1717 0
1716 18 -1717 0
-1717 -19 -1718 0
-1717 19 1718 0
1717 -19 1718 0
1717 19 -1718 0
-1718 -20 -1719 0
-1718 20 1719 0
1718 -20 1719 0
1718 20 -1719 0
-1719 -31 -1720 0
-1719 31 1720 0
1719 -31 1720 0
1719 31 -1720 0
-1720 -32 -1721 0
-1720 32 1721 0
1720 -32 1721 0
1720 32 -1721 0
-1721 -34 -1722 0
-1721 34 1722 0
1721 -34 1722 0
1721 34 -1722 0
-1722 -35 -1723 0
-1722 35 1723 0
1722 -35 1723 0
1722 35 -1723 0
-1723 -36 -1724 0
-1723 36 1724 0
1723 -36 1724 0
1723 36 -1724 0
-1724 -38 -1725 0
-1724 38 1725 0
1724 -38 1725 0
1724 38 -1725 0
-1725 -39 -1726 0
-1725 39 1726 0
1725 -39 1726 0
1725 39 -1726 0
-1726 -40 -1727 0
-1726 40 1727 0
1726 -40 1727 0
1726 40 -1727 0
1712 1727 0
-2 -3 -1728 0
-2 3 1728 0
2 -3 1728 0
2 3 -1728 0
-1728 -4 -1729 0
-1728 4 1729 0
1728 -4 1729 0
1728 4 -1729 0
-1729 -5 -1730 0
-1729 5 1730 0
1729 -5 1730 0
1729 5 -1730 0
-1730 -6 -1731 0
-1730 6 1731 0
1730 -6 1731 0
1730 6 -1731 0
-1731 -8 -1732 0
-1731 8 1732 0
1731 -8 1732 0
1731 8 -1732 0
-1732 -9 -1733 0
-1732 9 1733 0
1732 -9 1733 0
1732 9 -1733 0
-1733 -10 -1734 0
-1733 10 1734 0
1733 -10 1734 0
1733 10 -1734 0
-1734 -12 -1735 0
-1734 12 1735 0
1734 -12 1735 0
1734 12 -1735 0
-1735 -13 -1736 0
-1735 13 1736 0
1735 -13 1736 0
1735 13 -1736 0
-1736 -14 -1737 0
-1736 14 1737 0
1736 -14 1737 0
1736 14 -1737 0
-1737 -15 -1738 0
-1737 15 1738 0
1737 -15 1738 0
1737 15 -1738 0
-1738 -16 -1739 0
-1738 16 1739 0
1738 -16 1739 0
1738 16 -1739 0
-1739 -18 -1740 0
-1739 18 1740 0
1739 -18 1740 0
1739 18 -1740 0
-1740 -19 -1741 0
-1740 19 1741 0
1740 -19 1741 0
1740 19 -1741 0
-1741 -20 -1742 0
-1741 20 1742 0
1741 -20 1742 0
1741 20 -1742 0
-1742 -22 -1743 0
-1742 22 1743 0
1742 -22 1743 0
1742 22 -1743 0
-1743 -23 -1744 0
-1743 23 1744 0
1743 -23 1744 0
1743 23 -1744 0
-1744 -24 -1745 0
-1744 24 1745 0
1744 -24 1745 0
1744 24 -1745 0
-1745 -25 -1746 0
-1745 25 1746 0
1745 -25 1746 0
1745 25 -1746 0
-1746 -26 -1747 0
-1746 26 1747 0
1746 -26 1747 0
1746 26 -1747 0
-1747 -28 -1748 0
-1747 28 1748 0
1747 -28 1748 0
1747 28 -1748 0
-1748 -29 -1749 0
-1748 29 1749 0
1748 -29 1749 0
1748 29 -1749 0
-1749 -30 -1750 0
-1749 30 1750 0
1749 -30 1750 0
1749 30 -1750 0
-12 -13 -1751 0
-12 13 1751 0
12 -13 1751 0
12 13 -1751 0
-1751 -14 -1752 0
-1751 14 1752 0
1751 -14 1752 0
1751 14 -1752 0
-1752 -15 -1753 0
-1752 15 1753 0
1752 -15 1753 0
1752 15 -1753 0
-1753 -16 -1754 0
-1753 16 1754 0
1753 -16 1754 0
1753 16 -1754 0
-1754 -18 -1755 0
-1754 18 1755 0
1754 -18 1755 0
1754 18 -1755 0
-1755 -19 -1756 0
-1755 19 1756 0
1755 -19 1756 0
1755 19 -1756 0
-1756 -20 -1757 0
-1756 20 1757 0
1756 -20 1757 0
1756 20 -1757 0
-1757 -32 -1758 0
-1757 32 1758 0
1757 -32 1758 0
1757 32 -1758 0
-1758 -33 -1759 0
-1758 33 1759 0
1758 -33 1759 0
1758 33 -1759 0
-1759 -34 -1760 0
-1759 34 1760 0
1759 -34 1760 0
1759 34 -1760 0
-1760 -35 -1761 0
-1760 35 1761 0
1760 -35 1761 0
1760 35 -1761 0
-1761 -36 -1762 0
-1761 36 1762 0
1761 -36 1762 0
1761 36 -1762 0
-1762 -38 -1763 0
-1762 38 1763 0
1762 -38 1763 0
1762 38 -1763 0
-1763 -39 -1764 0
-1763 39 1764 0
1763 -39 1764 0
1763 39 -1764 0
-1764 -40 -1765 0
-1764 40 1765 0
1764 -40 1765 0
1764 40 -1765 0
1750 1765 0
-1 -2 -1766 0
-1 2 1766 0
1 -2 1766 0
1 2 -1766 0
-1766 -6 -1767 0
-1766 6 1767 0
1766 -6 1767 0
1766 6 -1767 0
-1767 -7 -1768 0
-1767 7 1768 0
1767 -7 1768 0
1767 7 -1768 0
-1768 -8 -1769 0
-1768 8 1769 0
1768 -8 1769 0
1768 8 -1769 0
-1769 -9 -1770 0
-1769 9 1770 0
1769 -9 1770 0
1769 9 -1770 0
-1770 -10 -1771 0
-1770 10 1771 0
1770 -10 1771 0
1770 10 -1771 0
-1771 -11 -1772 0
-1771 11 1772 0
1771 -11 1772 0
1771 11 -1772 0
-1772 -12 -1773 0
-1772 12 1773 0
1772 -12 1773 0
1772 12 -1773 0
-1773 -16 -1774 0
-1773 16 1774 0
1773 -16 1774 0
1773 16 -1774 0
-1774 -17 -1775 0
-1774 17 1775 0
1774 -17 1775 0
1774 17 -1775 0
-1775 -18 -1776 0
-1775 18 1776 0
1775 -18 1776 0
1775 18 -1776 0
-1776 -19 -1777 0
-1776 19 1777 0
1776 -19 1777 0
1776 19 -1777 0
-1777 -20 -1778 0
-1777 20 1778 0
1777 -20 1778 0
1777 20 -1778 0
-1778 -21 -1779 0
-1778 21 1779 0
1778 -21 1779 0
1778 21 -1779 0
-1779 -22 -1780 0
-1779 22 1780 0
1779 -22 1780 0
1779 22 -1780 0
-1780 -26 -1781 0
-1780 26 1781 0
1780 -26 1781 0
1780 26 -1781 0
-1781 -27 -1782 0
-1781 27 1782 0
1781 -27 1782 0
1781 27 -1782 0
-1782 -28 -1783 0
-1782 28 1783 0
1782 -28 1783 0
1782 28 -1783 0
-1783 -29 -1784 0
-1783 29 1784 0
1783 -29 1784 0
1783 29 -1784 0
-1784 -30 -1785 0
-1784 30 1785 0
1784 -30 1785 0
1784 30 -1785 0
-1 -2 -1786 0
-1 2 1786 0
1 -2 1786 0
1 2 -1786 0
-1786 -6 -1787 0
-1786 6 1787 0
1786 -6 1787 0
1786 6 -1787 0
-1787 -7 -1788 0
-1787 7 1788 0
1787 -7 1788 0
1787 7 -1788 0
-1788 -8 -1789 0
-1788 8 1789 0
1788 -8 1789 0
1788 8 -1789 0
-1789 -9 -1790 0
-1789 9 1790 0
1789 -9 1790 0
1789 9 -1790 0
-1790 -10 -1791 0
-1790 10 1791 0
1790 -10 1791 0
1790 10 -1791 0
-1791 -11 -1792 0
-1791 11 1792 0
1791 -11 1792 0
1791 11 -1792 0
-1792 -12 -1793 0
-1792 12 1793 0
1792 -12 1793 0
1792 12 -1793 0
-1793 -16 -1794 0
-1793 16 1794 0
1793 -16 1794 0
1793 16 -1794 0
-1794 -17 -1795 0
-1794 17 1795 0
1794 -17 1795 0
1794 17 -1795 0
-1795 -18 -1796 0
-1795 18 1796 0
1795 -18 1796 0
1795 18 -1796 0
-1796 -19 -1797 0
-1796 19 1797 0
1796 -19 1797 0
1796 19 -1797 0
-1797 -20 -1798 0
-1797 20 1798 0
1797 -20 1798 0
1797 20 -1798 0
-1798 -31 -1799 0
-1798 31 1799 0
1798 -31 1799 0
1798 31 -1799 0
-1799 -32 -1800 0
-1799 32 1800 0
1799 -32 1800 0
1799 32 -1800 0
-1800 -36 -1801 0
-1800 36 1801 0
1800 -36 1801 0
1800 36 -1801 0
-1801 -37 -1802 0
-1801 37 1802 0
1801 -37 1802 0
1801 37 -1802 0
-1802 -38 -1803 0
-1802 38 1803 0
1802 -38 1803 0
1802 38 -1803 0
-1803 -39 -1804 0
-1803 39 1804 0
1803 -39 1804 0
1803 39 -1804 0
-1804 -40 -1805 0
-1804 40 1805 0
1804 -40 1805 0
1804 40 -1805 0
1785 1805 0
-5 -6 -1806 0
-5 6 1806 0
5 -6 1806 0
5 6 -1806 0
-1806 -7 -1807 0
-1806 7 1807 0
1806 -7 1807 0
1806 7 -1807 0
-1807 -8 -1808 0
-1807 8 1808 0
1807 -8 1808 0
1807 8 -1808 0
-1808 -9 -1809 0
-1808 9 1809 0
1808 -9 1809 0
1808 9 -1809 0
-1809 -10 -1810 0
-1809 10 1810 0
1809 -10 1810 0
1809 10 -1810 0
-1810 -25 -1811 0
-1810 25 1811 0
1810 -25 1811 0
1810 25 -1811 0
-1811 -26 -1812 0
-1811 26 1812 0
1811 -26 1812 0
1811 26 -1812 0
-1812 -27 -1813 0
-1812 27 1813 0
1812 -27 1813 0
1812 27 -1813 0
-1813 -28 -1814 0
-1813 28 1814 0
1813 -28 1814 0
1813 28 -1814 0
-1814 -29 -1815 0
-1814 29 1815 0
1814 -29 1815 0
1814 29 -1815 0
-1815 -30 -1816 0
-1815 30 1816 0
1815 -30 1816 0
1815 30 -1816 0
-15 -16 -1817 0
-15 16 1817 0
15 -16 1817 0
15 16 -1817 0
-1817 -17 -1818 0
-1817 17 1818 0
1817 -17 1818 0
1817 17 -1818 0
-1818 -18 -1819 0
-1818 18 1819 0
1818 -18 1819 0
1818 18 -1819 0
-1819 -19 -1820 0
-1819 19 1820 0
1819 -19 1820 0
1819 19 -1820 0
-1820 -20 -1821 0
-1820 20 1821 0
1820 -20 1821 0
1820 20 -1821 0
-1821 -35 -1822 0
-1821 35 1822 0
1821 -35 1822 0
1821 35 -1822 0
-1822 -36 -1823 0
-1822 36 1823 0
1822 -36 1823 0
1822 36 -1823 0
-1823 -37 -1824 0
-1823 37 1824 0
1823 -37 1824 0
1823 37 -1824 0
-1824 -38 -1825 0
-1824 38 1825 0
1824 -38 1825 0
1824 38 -1825 0
-1825 -39 -1826 0
-1825 39 1826 0
1825 -39 1826 0
1825 39 -1826 0
-1826 -40 -1827 0
-1826 40 1827 0
1826 -40 1827 0
1826 40 -1827 0
1816 1827 0
