p cnf 00000000000000001722 00000000000000006825
-41 3 0
41 -3 0
-42 33 0
42 -33 0
41 42 0
-43 4 0
43 -4 0
-44 14 0
44 -14 0
43 44 0
-2 -3 -45 0
-2 3 45 0
2 -3 45 0
2 3 -45 0
-45 -4 -46 0
-45 4 46 0
45 -4 46 0
45 4 -46 0
-22 -23 -47 0
-22 23 47 0
22 -23 47 0
22 23 -47 0
-47 -24 -48 0
-47 24 48 0
47 -24 48 0
47 24 -48 0
-48 -32 -49 0
-48 32 49 0
48 -32 49 0
48 32 -49 0
-49 -33 -50 0
-49 33 50 0
49 -33 50 0
49 33 -50 0
-50 -34 -51 0
-50 34 51 0
50 -34 51 0
50 34 -51 0
46 51 0
-2 -3 -52 0
-2 3 52 0
2 -3 52 0
2 3 -52 0
-52 -6 -53 0
-52 6 53 0
52 -6 53 0
52 6 -53 0
-53 -7 -54 0
-53 7 54 0
53 -7 54 0
53 7 -54 0
-12 -13 -55 0
-12 13 55 0
12 -13 55 0
12 13 -55 0
-55 -16 -56 0
-55 16 56 0
55 -16 56 0
55 16 -56 0
-56 -17 -57 0
-56 17 57 0
56 -17 57 0
56 17 -57 0
-57 -22 -58 0
-57 22 58 0
57 -22 58 0
57 22 -58 0
-58 -23 -59 0
-58 23 59 0
58 -23 59 0
58 23 -59 0
-59 -26 -60 0
-59 26 60 0
59 -26 60 0
59 26 -60 0
-60 -27 -61 0
-60 27 61 0
60 -27 61 0
60 27 -61 0
54 61 0
-3 -4 -62 0
-3 4 62 0
3 -4 62 0
3 4 -62 0
-62 -6 -63 0
-62 6 63 0
62 -6 63 0
62 6 -63 0
-63 -7 -64 0
-63 7 64 0
63 -7 64 0
63 7 -64 0
-13 -14 -65 0
-13 14 65 0
13 -14 65 0
13 14 -65 0
-65 -16 -66 0
-65 16 66 0
65 -16 66 0
65 16 -66 0
-66 -17 -67 0
-66 17 67 0
66 -17 67 0
66 17 -67 0
-67 -23 -68 0
-67 23 68 0
67 -23 68 0
67 23 -68 0
-68 -24 -69 0
-68 24 69 0
68 -24 69 0
68 24 -69 0
-69 -26 -70 0
-69 26 70 0
69 -26 70 0
69 26 -70 0
-70 -27 -71 0
-70 27 71 0
70 -27 71 0
70 27 -71 0
-71 -33 -72 0
-71 33 72 0
71 -33 72 0
71 33 -72 0
-72 -34 -73 0
-72 34 73 0
72 -34 73 0
72 34 -73 0
-73 -36 -74 0
-73 36 74 0
73 -36 74 0
73 36 -74 0
-74 -37 -75 0
-74 37 75 0
74 -37 75 0
74 37 -75 0
64 75 0
-6 -8 -76 0
-6 8 76 0
6 -8 76 0
6 8 -76 0
-16 -18 -77 0
-16 18 77 0
16 -18 77 0
16 18 -77 0
-77 -36 -78 0
-77 36 78 0
77 -36 78 0
77 36 -78 0
-78 -38 -79 0
-78 38 79 0
78 -38 79 0
78 38 -79 0
76 79 0
-2 -3 -80 0
-2 3 80 0
2 -3 80 0
2 3 -80 0
-80 -6 -81 0
-80 6 81 0
80 -6 81 0
80 6 -81 0
-81 -8 -82 0
-81 8 82 0
81 -8 82 0
81 8 -82 0
-12 -13 -83 0
-12 13 83 0
12 -13 83 0
12 13 -83 0
-83 -16 -84 0
-83 16 84 0
83 -16 84 0
83 16 -84 0
-84 -18 -85 0
-84 18 85 0
84 -18 85 0
84 18 -85 0
-85 -22 -86 0
-85 22 86 0
85 -22 86 0
85 22 -86 0
-86 -23 -87 0
-86 23 87 0
86 -23 87 0
86 23 -87 0
-87 -26 -88 0
-87 26 88 0
87 -26 88 0
87 26 -88 0
-88 -28 -89 0
-88 28 89 0
88 -28 89 0
88 28 -89 0
-89 -32 -90 0
-89 32 90 0
89 -32 90 0
89 32 -90 0
-90 -33 -91 0
-90 33 91 0
90 -33 91 0
90 33 -91 0
-91 -36 -92 0
-91 36 92 0
91 -36 92 0
91 36 -92 0
-92 -38 -93 0
-92 38 93 0
92 -38 93 0
92 38 -93 0
82 93 0
-2 -4 -94 0
-2 4 94 0
2 -4 94 0
2 4 -94 0
-94 -6 -95 0
-94 6 95 0
94 -6 95 0
94 6 -95 0
-95 -8 -96 0
-95 8 96 0
95 -8 96 0
95 8 -96 0
-22 -24 -97 0
-22 24 97 0
22 -24 97 0
22 24 -97 0
-97 -26 -98 0
-97 26 98 0
97 -26 98 0
97 26 -98 0
-98 -28 -99 0
-98 28 99 0
98 -28 99 0
98 28 -99 0
96 99 0
-7 -8 -100 0
-7 8 100 0
7 -8 100 0
7 8 -100 0
-27 -28 -101 0
-27 28 101 0
27 -28 101 0
27 28 -101 0
-101 -37 -102 0
-101 37 102 0
101 -37 102 0
101 37 -102 0
-102 -38 -103 0
-102 38 103 0
102 -38 103 0
102 38 -103 0
100 103 0
-3 -7 -104 0
-3 7 104 0
3 -7 104 0
3 7 -104 0
-104 -8 -105 0
-104 8 105 0
104 -8 105 0
104 8 -105 0
-13 -17 -106 0
-13 17 106 0
13 -17 106 0
13 17 -106 0
-106 -18 -107 0
-106 18 107 0
106 -18 107 0
106 18 -107 0
105 107 0
-2 -4 -108 0
-2 4 108 0
2 -4 108 0
2 4 -108 0
-108 -7 -109 0
-108 7 109 0
108 -7 109 0
108 7 -109 0
-109 -8 -110 0
-109 8 110 0
109 -8 110 0
109 8 -110 0
-12 -14 -111 0
-12 14 111 0
12 -14 111 0
12 14 -111 0
-111 -17 -112 0
-111 17 112 0
111 -17 112 0
111 17 -112 0
-112 -18 -113 0
-112 18 113 0
112 -18 113 0
112 18 -113 0
-113 -22 -114 0
-113 22 114 0
113 -22 114 0
113 22 -114 0
-114 -24 -115 0
-114 24 115 0
114 -24 115 0
114 24 -115 0
-115 -27 -116 0
-115 27 116 0
115 -27 116 0
115 27 -116 0
-116 -28 -117 0
-116 28 117 0
116 -28 117 0
116 28 -117 0
-117 -32 -118 0
-117 32 118 0
117 -32 118 0
117 32 -118 0
-118 -34 -119 0
-118 34 119 0
118 -34 119 0
118 34 -119 0
-119 -37 -120 0
-119 37 120 0
119 -37 120 0
119 37 -120 0
-120 -38 -121 0
-120 38 121 0
120 -38 121 0
120 38 -121 0
110 121 0
-3 -4 -122 0
-3 4 122 0
3 -4 122 0
3 4 -122 0
-122 -7 -123 0
-122 7 123 0
122 -7 123 0
122 7 -123 0
-123 -8 -124 0
-123 8 124 0
123 -8 124 0
123 8 -124 0
-13 -14 -125 0
-13 14 125 0
13 -14 125 0
13 14 -125 0
-125 -17 -126 0
-125 17 126 0
125 -17 126 0
125 17 -126 0
-126 -18 -127 0
-126 18 127 0
126 -18 127 0
126 18 -127 0
124 127 0
-2 -3 -128 0
-2 3 128 0
2 -3 128 0
2 3 -128 0
-128 -4 -129 0
-128 4 129 0
128 -4 129 0
128 4 -129 0
-129 -7 -130 0
-129 7 130 0
129 -7 130 0
129 7 -130 0
-130 -8 -131 0
-130 8 131 0
130 -8 131 0
130 8 -131 0
-22 -23 -132 0
-22 23 132 0
22 -23 132 0
22 23 -132 0
-132 -24 -133 0
-132 24 133 0
132 -24 133 0
132 24 -133 0
-133 -27 -134 0
-133 27 134 0
133 -27 134 0
133 27 -134 0
-134 -28 -135 0
-134 28 135 0
134 -28 135 0
134 28 -135 0
-135 -32 -136 0
-135 32 136 0
135 -32 136 0
135 32 -136 0
-136 -33 -137 0
-136 33 137 0
136 -33 137 0
136 33 -137 0
-137 -34 -138 0
-137 34 138 0
137 -34 138 0
137 34 -138 0
-138 -37 -139 0
-138 37 139 0
138 -37 139 0
138 37 -139 0
-139 -38 -140 0
-139 38 140 0
139 -38 140 0
139 38 -140 0
131 140 0
-6 -10 -141 0
-6 10 141 0
6 -10 141 0
6 10 -141 0
-26 -30 -142 0
-26 30 142 0
26 -30 142 0
26 30 -142 0
141 142 0
-2 -7 -143 0
-2 7 143 0
2 -7 143 0
2 7 -143 0
-143 -10 -144 0
-143 10 144 0
143 -10 144 0
143 10 -144 0
-32 -37 -145 0
-32 37 145 0
32 -37 145 0
32 37 -145 0
-145 -40 -146 0
-145 40 146 0
145 -40 146 0
145 40 -146 0
144 146 0
-3 -7 -147 0
-3 7 147 0
3 -7 147 0
3 7 -147 0
-147 -10 -148 0
-147 10 148 0
147 -10 148 0
147 10 -148 0
-13 -17 -149 0
-13 17 149 0
13 -17 149 0
13 17 -149 0
-149 -20 -150 0
-149 20 150 0
149 -20 150 0
149 20 -150 0
-150 -33 -151 0
-150 33 151 0
150 -33 151 0
150 33 -151 0
-151 -37 -152 0
-151 37 152 0
151 -37 152 0
151 37 -152 0
-152 -40 -153 0
-152 40 153 0
152 -40 153 0
152 40 -153 0
148 153 0
-2 -3 -154 0
-2 3 154 0
2 -3 154 0
2 3 -154 0
-154 -7 -155 0
-154 7 155 0
154 -7 155 0
154 7 -155 0
-155 -10 -156 0
-155 10 156 0
155 -10 156 0
155 10 -156 0
-32 -33 -157 0
-32 33 157 0
32 -33 157 0
32 33 -157 0
-157 -37 -158 0
-157 37 158 0
157 -37 158 0
157 37 -158 0
-158 -40 -159 0
-158 40 159 0
158 -40 159 0
158 40 -159 0
156 159 0
-2 -3 -160 0
-2 3 160 0
2 -3 160 0
2 3 -160 0
-160 -8 -161 0
-160 8 161 0
160 -8 161 0
160 8 -161 0
-161 -10 -162 0
-161 10 162 0
161 -10 162 0
161 10 -162 0
-12 -13 -163 0
-12 13 163 0
12 -13 163 0
12 13 -163 0
-163 -18 -164 0
-163 18 164 0
163 -18 164 0
163 18 -164 0
-164 -20 -165 0
-164 20 165 0
164 -20 165 0
164 20 -165 0
-165 -22 -166 0
-165 22 166 0
165 -22 166 0
165 22 -166 0
-166 -23 -167 0
-166 23 167 0
166 -23 167 0
166 23 -167 0
-167 -28 -168 0
-167 28 168 0
167 -28 168 0
167 28 -168 0
-168 -30 -169 0
-168 30 169 0
168 -30 169 0
168 30 -169 0
162 169 0
-2 -4 -170 0
-2 4 170 0
2 -4 170 0
2 4 -170 0
-170 -8 -171 0
-170 8 171 0
170 -8 171 0
170 8 -171 0
-171 -10 -172 0
-171 10 172 0
171 -10 172 0
171 10 -172 0
-22 -24 -173 0
-22 24 173 0
22 -24 173 0
22 24 -173 0
-173 -28 -174 0
-173 28 174 0
173 -28 174 0
173 28 -174 0
-174 -30 -175 0
-174 30 175 0
174 -30 175 0
174 30 -175 0
172 175 0
-6 -7 -176 0
-6 7 176 0
6 -7 176 0
6 7 -176 0
-176 -8 -177 0
-176 8 177 0
176 -8 177 0
176 8 -177 0
-177 -10 -178 0
-177 10 178 0
177 -10 178 0
177 10 -178 0
-16 -17 -179 0
-16 17 179 0
16 -17 179 0
16 17 -179 0
-179 -18 -180 0
-179 18 180 0
179 -18 180 0
179 18 -180 0
-180 -20 -181 0
-180 20 181 0
180 -20 181 0
180 20 -181 0
-181 -26 -182 0
-181 26 182 0
181 -26 182 0
181 26 -182 0
-182 -27 -183 0
-182 27 183 0
182 -27 183 0
182 27 -183 0
-183 -28 -184 0
-183 28 184 0
183 -28 184 0
183 28 -184 0
-184 -30 -185 0
-184 30 185 0
184 -30 185 0
184 30 -185 0
178 185 0
-3 -6 -186 0
-3 6 186 0
3 -6 186 0
3 6 -186 0
-186 -7 -187 0
-186 7 187 0
186 -7 187 0
186 7 -187 0
-187 -8 -188 0
-187 8 188 0
187 -8 188 0
187 8 -188 0
-188 -10 -189 0
-188 10 189 0
188 -10 189 0
188 10 -189 0
-13 -16 -190 0
-13 16 190 0
13 -16 190 0
13 16 -190 0
-190 -17 -191 0
-190 17 191 0
190 -17 191 0
190 17 -191 0
-191 -18 -192 0
-191 18 192 0
191 -18 192 0
191 18 -192 0
-192 -20 -193 0
-192 20 193 0
192 -20 193 0
192 20 -193 0
-193 -33 -194 0
-193 33 194 0
193 -33 194 0
193 33 -194 0
-194 -36 -195 0
-194 36 195 0
194 -36 195 0
194 36 -195 0
-195 -37 -196 0
-195 37 196 0
195 -37 196 0
195 37 -196 0
-196 -38 -197 0
-196 38 197 0
196 -38 197 0
196 38 -197 0
-197 -40 -198 0
-197 40 198 0
197 -40 198 0
197 40 -198 0
189 198 0
-199 11 0
199 -11 0
-200 21 0
200 -21 0
199 200 0
-1 -2 -201 0
-1 2 201 0
1 -2 201 0
1 2 -201 0
-201 -3 -202 0
-201 3 202 0
201 -3 202 0
201 3 -202 0
-202 -11 -203 0
-202 11 203 0
202 -11 203 0
202 11 -203 0
-203 -12 -204 0
-203 12 204 0
203 -12 204 0
203 12 -204 0
-204 -13 -205 0
-204 13 205 0
204 -13 205 0
204 13 -205 0
-1 -2 -206 0
-1 2 206 0
1 -2 206 0
1 2 -206 0
-206 -3 -207 0
-206 3 207 0
206 -3 207 0
206 3 -207 0
-207 -21 -208 0
-207 21 208 0
207 -21 208 0
207 21 -208 0
-208 -22 -209 0
-208 22 209 0
208 -22 209 0
208 22 -209 0
-209 -23 -210 0
-209 23 210 0
209 -23 210 0
209 23 -210 0
-210 -31 -211 0
-210 31 211 0
210 -31 211 0
210 31 -211 0
-211 -32 -212 0
-211 32 212 0
211 -32 212 0
211 32 -212 0
-212 -33 -213 0
-212 33 213 0
212 -33 213 0
212 33 -213 0
205 213 0
-11 -14 -214 0
-11 14 214 0
11 -14 214 0
11 14 -214 0
-1 -4 -215 0
-1 4 215 0
1 -4 215 0
1 4 -215 0
-215 -21 -216 0
-215 21 216 0
215 -21 216 0
215 21 -216 0
-216 -24 -217 0
-216 24 217 0
216 -24 217 0
216 24 -217 0
-217 -31 -218 0
-217 31 218 0
217 -31 218 0
217 31 -218 0
-218 -34 -219 0
-218 34 219 0
218 -34 219 0
218 34 -219 0
214 219 0
-1 -2 -220 0
-1 2 220 0
1 -2 220 0
1 2 -220 0
-220 -3 -221 0
-220 3 221 0
220 -3 221 0
220 3 -221 0
-221 -4 -222 0
-221 4 222 0
221 -4 222 0
221 4 -222 0
-222 -11 -223 0
-222 11 223 0
222 -11 223 0
222 11 -223 0
-223 -12 -224 0
-223 12 224 0
223 -12 224 0
223 12 -224 0
-224 -13 -225 0
-224 13 225 0
224 -13 225 0
224 13 -225 0
-225 -14 -226 0
-225 14 226 0
225 -14 226 0
225 14 -226 0
-1 -2 -227 0
-1 2 227 0
1 -2 227 0
1 2 -227 0
-227 -3 -228 0
-227 3 228 0
227 -3 228 0
227 3 -228 0
-228 -4 -229 0
-228 4 229 0
228 -4 229 0
228 4 -229 0
-229 -31 -230 0
-229 31 230 0
229 -31 230 0
229 31 -230 0
-230 -32 -231 0
-230 32 231 0
230 -32 231 0
230 32 -231 0
-231 -33 -232 0
-231 33 232 0
231 -33 232 0
231 33 -232 0
-232 -34 -233 0
-232 34 233 0
232 -34 233 0
232 34 -233 0
226 233 0
-234 15 0
234 -15 0
-25 -35 -235 0
-25 35 235 0
25 -35 235 0
25 35 -235 0
234 235 0
-1 -2 -236 0
-1 2 236 0
1 -2 236 0
1 2 -236 0
-236 -5 -237 0
-236 5 237 0
236 -5 237 0
236 5 -237 0
-237 -6 -238 0
-237 6 238 0
237 -6 238 0
237 6 -238 0
-238 -11 -239 0
-238 11 239 0
238 -11 239 0
238 11 -239 0
-239 -12 -240 0
-239 12 240 0
239 -12 240 0
239 12 -240 0
-240 -15 -241 0
-240 15 241 0
240 -15 241 0
240 15 -241 0
-241 -16 -242 0
-241 16 242 0
241 -16 242 0
241 16 -242 0
-21 -22 -243 0
-21 22 243 0
21 -22 243 0
21 22 -243 0
-243 -25 -244 0
-243 25 244 0
243 -25 244 0
243 25 -244 0
-244 -26 -245 0
-244 26 245 0
244 -26 245 0
244 26 -245 0
242 245 0
-3 -4 -246 0
-3 4 246 0
3 -4 246 0
3 4 -246 0
-246 -5 -247 0
-246 5 247 0
246 -5 247 0
246 5 -247 0
-247 -6 -248 0
-247 6 248 0
247 -6 248 0
247 6 -248 0
-248 -13 -249 0
-248 13 249 0
248 -13 249 0
248 13 -249 0
-249 -14 -250 0
-249 14 250 0
249 -14 250 0
249 14 -250 0
-250 -15 -251 0
-250 15 251 0
250 -15 251 0
250 15 -251 0
-251 -16 -252 0
-251 16 252 0
251 -16 252 0
251 16 -252 0
-23 -24 -253 0
-23 24 253 0
23 -24 253 0
23 24 -253 0
-253 -25 -254 0
-253 25 254 0
253 -25 254 0
253 25 -254 0
-254 -26 -255 0
-254 26 255 0
254 -26 255 0
254 26 -255 0
-255 -33 -256 0
-255 33 256 0
255 -33 256 0
255 33 -256 0
-256 -34 -257 0
-256 34 257 0
256 -34 257 0
256 34 -257 0
-257 -35 -258 0
-257 35 258 0
257 -35 258 0
257 35 -258 0
-258 -36 -259 0
-258 36 259 0
258 -36 259 0
258 36 -259 0
252 259 0
-260 17 0
260 -17 0
-261 37 0
261 -37 0
260 261 0
-3 -7 -262 0
-3 7 262 0
3 -7 262 0
3 7 -262 0
-262 -13 -263 0
-262 13 263 0
262 -13 263 0
262 13 -263 0
-263 -17 -264 0
-263 17 264 0
263 -17 264 0
263 17 -264 0
-33 -37 -265 0
-33 37 265 0
33 -37 265 0
33 37 -265 0
264 265 0
-15 -17 -266 0
-15 17 266 0
15 -17 266 0
15 17 -266 0
-5 -7 -267 0
-5 7 267 0
5 -7 267 0
5 7 -267 0
-267 -25 -268 0
-267 25 268 0
267 -25 268 0
267 25 -268 0
-268 -27 -269 0
-268 27 269 0
268 -27 269 0
268 27 -269 0
-269 -35 -270 0
-269 35 270 0
269 -35 270 0
269 35 -270 0
-270 -37 -271 0
-270 37 271 0
270 -37 271 0
270 37 -271 0
266 271 0
-11 -14 -272 0
-11 14 272 0
11 -14 272 0
11 14 -272 0
-272 -15 -273 0
-272 15 273 0
272 -15 273 0
272 15 -273 0
-273 -17 -274 0
-273 17 274 0
273 -17 274 0
273 17 -274 0
-1 -4 -275 0
-1 4 275 0
1 -4 275 0
1 4 -275 0
-275 -5 -276 0
-275 5 276 0
275 -5 276 0
275 5 -276 0
-276 -7 -277 0
-276 7 277 0
276 -7 277 0
276 7 -277 0
-277 -21 -278 0
-277 21 278 0
277 -21 278 0
277 21 -278 0
-278 -24 -279 0
-278 24 279 0
278 -24 279 0
278 24 -279 0
-279 -25 -280 0
-279 25 280 0
279 -25 280 0
279 25 -280 0
-280 -27 -281 0
-280 27 281 0
280 -27 281 0
280 27 -281 0
-281 -31 -282 0
-281 31 282 0
281 -31 282 0
281 31 -282 0
-282 -34 -283 0
-282 34 283 0
282 -34 283 0
282 34 -283 0
-283 -35 -284 0
-283 35 284 0
283 -35 284 0
283 35 -284 0
-284 -37 -285 0
-284 37 285 0
284 -37 285 0
284 37 -285 0
274 285 0
-5 -6 -286 0
-5 6 286 0
5 -6 286 0
5 6 -286 0
-286 -7 -287 0
-286 7 287 0
286 -7 287 0
286 7 -287 0
-287 -15 -288 0
-287 15 288 0
287 -15 288 0
287 15 -288 0
-288 -16 -289 0
-288 16 289 0
288 -16 289 0
288 16 -289 0
-289 -17 -290 0
-289 17 290 0
289 -17 290 0
289 17 -290 0
-5 -6 -291 0
-5 6 291 0
5 -6 291 0
5 6 -291 0
-291 -7 -292 0
-291 7 292 0
291 -7 292 0
291 7 -292 0
-292 -25 -293 0
-292 25 293 0
292 -25 293 0
292 25 -293 0
-293 -26 -294 0
-293 26 294 0
293 -26 294 0
293 26 -294 0
-294 -27 -295 0
-294 27 295 0
294 -27 295 0
294 27 -295 0
290 295 0
-4 -8 -296 0
-4 8 296 0
4 -8 296 0
4 8 -296 0
-296 -14 -297 0
-296 14 297 0
296 -14 297 0
296 14 -297 0
-297 -18 -298 0
-297 18 298 0
297 -18 298 0
297 18 -298 0
-4 -8 -299 0
-4 8 299 0
4 -8 299 0
4 8 -299 0
-299 -24 -300 0
-299 24 300 0
299 -24 300 0
299 24 -300 0
-300 -28 -301 0
-300 28 301 0
300 -28 301 0
300 28 -301 0
298 301 0
-11 -13 -302 0
-11 13 302 0
11 -13 302 0
11 13 -302 0
-302 -14 -303 0
-302 14 303 0
302 -14 303 0
302 14 -303 0
-303 -18 -304 0
-303 18 304 0
303 -18 304 0
303 18 -304 0
-1 -3 -305 0
-1 3 305 0
1 -3 305 0
1 3 -305 0
-305 -4 -306 0
-305 4 306 0
305 -4 306 0
305 4 -306 0
-306 -8 -307 0
-306 8 307 0
306 -8 307 0
306 8 -307 0
-307 -21 -308 0
-307 21 308 0
307 -21 308 0
307 21 -308 0
-308 -23 -309 0
-308 23 309 0
308 -23 309 0
308 23 -309 0
-309 -24 -310 0
-309 24 310 0
309 -24 310 0
309 24 -310 0
-310 -28 -311 0
-310 28 311 0
310 -28 311 0
310 28 -311 0
304 311 0
-11 -13 -312 0
-11 13 312 0
11 -13 312 0
11 13 -312 0
-312 -14 -313 0
-312 14 313 0
312 -14 313 0
312 14 -313 0
-313 -15 -314 0
-313 15 314 0
313 -15 314 0
313 15 -314 0
-314 -18 -315 0
-314 18 315 0
314 -18 315 0
314 18 -315 0
-1 -3 -316 0
-1 3 316 0
1 -3 316 0
1 3 -316 0
-316 -4 -317 0
-316 4 317 0
316 -4 317 0
316 4 -317 0
-317 -5 -318 0
-317 5 318 0
317 -5 318 0
317 5 -318 0
-318 -8 -319 0
-318 8 319 0
318 -8 319 0
318 8 -319 0
-319 -31 -320 0
-319 31 320 0
319 -31 320 0
319 31 -320 0
-320 -33 -321 0
-320 33 321 0
320 -33 321 0
320 33 -321 0
-321 -34 -322 0
-321 34 322 0
321 -34 322 0
321 34 -322 0
-322 -35 -323 0
-322 35 323 0
322 -35 323 0
322 35 -323 0
-323 -38 -324 0
-323 38 324 0
323 -38 324 0
323 38 -324 0
315 324 0
-3 -5 -325 0
-3 5 325 0
3 -5 325 0
3 5 -325 0
-325 -6 -326 0
-325 6 326 0
325 -6 326 0
325 6 -326 0
-326 -8 -327 0
-326 8 327 0
326 -8 327 0
326 8 -327 0
-327 -13 -328 0
-327 13 328 0
327 -13 328 0
327 13 -328 0
-328 -15 -329 0
-328 15 329 0
328 -15 329 0
328 15 -329 0
-329 -16 -330 0
-329 16 330 0
329 -16 330 0
329 16 -330 0
-330 -18 -331 0
-330 18 331 0
330 -18 331 0
330 18 -331 0
-3 -5 -332 0
-3 5 332 0
3 -5 332 0
3 5 -332 0
-332 -6 -333 0
-332 6 333 0
332 -6 333 0
332 6 -333 0
-333 -8 -334 0
-333 8 334 0
333 -8 334 0
333 8 -334 0
-334 -33 -335 0
-334 33 335 0
334 -33 335 0
334 33 -335 0
-335 -35 -336 0
-335 35 336 0
335 -35 336 0
335 35 -336 0
-336 -36 -337 0
-336 36 337 0
336 -36 337 0
336 36 -337 0
-337 -38 -338 0
-337 38 338 0
337 -38 338 0
337 38 -338 0
331 338 0
-1 -2 -339 0
-1 2 339 0
1 -2 339 0
1 2 -339 0
-339 -4 -340 0
-339 4 340 0
339 -4 340 0
339 4 -340 0
-340 -5 -341 0
-340 5 341 0
340 -5 341 0
340 5 -341 0
-341 -6 -342 0
-341 6 342 0
341 -6 342 0
341 6 -342 0
-342 -8 -343 0
-342 8 343 0
342 -8 343 0
342 8 -343 0
-343 -11 -344 0
-343 11 344 0
343 -11 344 0
343 11 -344 0
-344 -12 -345 0
-344 12 345 0
344 -12 345 0
344 12 -345 0
-345 -14 -346 0
-345 14 346 0
345 -14 346 0
345 14 -346 0
-346 -15 -347 0
-346 15 347 0
346 -15 347 0
346 15 -347 0
-347 -16 -348 0
-347 16 348 0
347 -16 348 0
347 16 -348 0
-348 -18 -349 0
-348 18 349 0
348 -18 349 0
348 18 -349 0
-1 -2 -350 0
-1 2 350 0
1 -2 350 0
1 2 -350 0
-350 -4 -351 0
-350 4 351 0
350 -4 351 0
350 4 -351 0
-351 -5 -352 0
-351 5 352 0
351 -5 352 0
351 5 -352 0
-352 -6 -353 0
-352 6 353 0
352 -6 353 0
352 6 -353 0
-353 -8 -354 0
-353 8 354 0
353 -8 354 0
353 8 -354 0
-354 -31 -355 0
-354 31 355 0
354 -31 355 0
354 31 -355 0
-355 -32 -356 0
-355 32 356 0
355 -32 356 0
355 32 -356 0
-356 -34 -357 0
-356 34 357 0
356 -34 357 0
356 34 -357 0
-357 -35 -358 0
-357 35 358 0
357 -35 358 0
357 35 -358 0
-358 -36 -359 0
-358 36 359 0
358 -36 359 0
358 36 -359 0
-359 -38 -360 0
-359 38 360 0
359 -38 360 0
359 38 -360 0
349 360 0
-1 -2 -361 0
-1 2 361 0
1 -2 361 0
1 2 -361 0
-361 -7 -362 0
-361 7 362 0
361 -7 362 0
361 7 -362 0
-362 -8 -363 0
-362 8 363 0
362 -8 363 0
362 8 -363 0
-363 -11 -364 0
-363 11 364 0
363 -11 364 0
363 11 -364 0
-364 -12 -365 0
-364 12 365 0
364 -12 365 0
364 12 -365 0
-365 -17 -366 0
-365 17 366 0
365 -17 366 0
365 17 -366 0
-366 -18 -367 0
-366 18 367 0
366 -18 367 0
366 18 -367 0
-21 -22 -368 0
-21 22 368 0
21 -22 368 0
21 22 -368 0
-368 -27 -369 0
-368 27 369 0
368 -27 369 0
368 27 -369 0
-369 -28 -370 0
-369 28 370 0
369 -28 370 0
369 28 -370 0
-370 -31 -371 0
-370 31 371 0
370 -31 371 0
370 31 -371 0
-371 -32 -372 0
-371 32 372 0
371 -32 372 0
371 32 -372 0
-372 -37 -373 0
-372 37 373 0
372 -37 373 0
372 37 -373 0
-373 -38 -374 0
-373 38 374 0
373 -38 374 0
373 38 -374 0
367 374 0
-11 -13 -375 0
-11 13 375 0
11 -13 375 0
11 13 -375 0
-375 -14 -376 0
-375 14 376 0
375 -14 376 0
375 14 -376 0
-376 -17 -377 0
-376 17 377 0
376 -17 377 0
376 17 -377 0
-377 -18 -378 0
-377 18 378 0
377 -18 378 0
377 18 -378 0
-21 -23 -379 0
-21 23 379 0
21 -23 379 0
21 23 -379 0
-379 -24 -380 0
-379 24 380 0
379 -24 380 0
379 24 -380 0
-380 -27 -381 0
-380 27 381 0
380 -27 381 0
380 27 -381 0
-381 -28 -382 0
-381 28 382 0
381 -28 382 0
381 28 -382 0
-382 -31 -383 0
-382 31 383 0
382 -31 383 0
382 31 -383 0
-383 -33 -384 0
-383 33 384 0
383 -33 384 0
383 33 -384 0
-384 -34 -385 0
-384 34 385 0
384 -34 385 0
384 34 -385 0
-385 -37 -386 0
-385 37 386 0
385 -37 386 0
385 37 -386 0
-386 -38 -387 0
-386 38 387 0
386 -38 387 0
386 38 -387 0
378 387 0
-11 -13 -388 0
-11 13 388 0
11 -13 388 0
11 13 -388 0
-388 -14 -389 0
-388 14 389 0
388 -14 389 0
388 14 -389 0
-389 -15 -390 0
-389 15 390 0
389 -15 390 0
389 15 -390 0
-390 -17 -391 0
-390 17 391 0
390 -17 391 0
390 17 -391 0
-391 -18 -392 0
-391 18 392 0
391 -18 392 0
391 18 -392 0
-21 -23 -393 0
-21 23 393 0
21 -23 393 0
21 23 -393 0
-393 -24 -394 0
-393 24 394 0
393 -24 394 0
393 24 -394 0
-394 -25 -395 0
-394 25 395 0
394 -25 395 0
394 25 -395 0
-395 -27 -396 0
-395 27 396 0
395 -27 396 0
395 27 -396 0
-396 -28 -397 0
-396 28 397 0
396 -28 397 0
396 28 -397 0
-397 -31 -398 0
-397 31 398 0
397 -31 398 0
397 31 -398 0
-398 -33 -399 0
-398 33 399 0
398 -33 399 0
398 33 -399 0
-399 -34 -400 0
-399 34 400 0
399 -34 400 0
399 34 -400 0
-400 -35 -401 0
-400 35 401 0
400 -35 401 0
400 35 -401 0
-401 -37 -402 0
-401 37 402 0
401 -37 402 0
401 37 -402 0
-402 -38 -403 0
-402 38 403 0
402 -38 403 0
402 38 -403 0
392 403 0
-4 -5 -404 0
-4 5 404 0
4 -5 404 0
4 5 -404 0
-404 -6 -405 0
-404 6 405 0
404 -6 405 0
404 6 -405 0
-405 -7 -406 0
-405 7 406 0
405 -7 406 0
405 7 -406 0
-406 -8 -407 0
-406 8 407 0
406 -8 407 0
406 8 -407 0
-407 -14 -408 0
-407 14 408 0
407 -14 408 0
407 14 -408 0
-408 -15 -409 0
-408 15 409 0
408 -15 409 0
408 15 -409 0
-409 -16 -410 0
-409 16 410 0
409 -16 410 0
409 16 -410 0
-410 -17 -411 0
-410 17 411 0
410 -17 411 0
410 17 -411 0
-411 -18 -412 0
-411 18 412 0
411 -18 412 0
411 18 -412 0
-4 -5 -413 0
-4 5 413 0
4 -5 413 0
4 5 -413 0
-413 -6 -414 0
-413 6 414 0
413 -6 414 0
413 6 -414 0
-414 -7 -415 0
-414 7 415 0
414 -7 415 0
414 7 -415 0
-415 -8 -416 0
-415 8 416 0
415 -8 416 0
415 8 -416 0
-416 -24 -417 0
-416 24 417 0
416 -24 417 0
416 24 -417 0
-417 -25 -418 0
-417 25 418 0
417 -25 418 0
417 25 -418 0
-418 -26 -419 0
-418 26 419 0
418 -26 419 0
418 26 -419 0
-419 -27 -420 0
-419 27 420 0
419 -27 420 0
419 27 -420 0
-420 -28 -421 0
-420 28 421 0
420 -28 421 0
420 28 -421 0
412 421 0
-1 -2 -422 0
-1 2 422 0
1 -2 422 0
1 2 -422 0
-422 -3 -423 0
-422 3 423 0
422 -3 423 0
422 3 -423 0
-423 -4 -424 0
-423 4 424 0
423 -4 424 0
423 4 -424 0
-424 -5 -425 0
-424 5 425 0
424 -5 425 0
424 5 -425 0
-425 -6 -426 0
-425 6 426 0
425 -6 426 0
425 6 -426 0
-426 -7 -427 0
-426 7 427 0
426 -7 427 0
426 7 -427 0
-427 -8 -428 0
-427 8 428 0
427 -8 428 0
427 8 -428 0
-428 -11 -429 0
-428 11 429 0
428 -11 429 0
428 11 -429 0
-429 -12 -430 0
-429 12 430 0
429 -12 430 0
429 12 -430 0
-430 -13 -431 0
-430 13 431 0
430 -13 431 0
430 13 -431 0
-431 -14 -432 0
-431 14 432 0
431 -14 432 0
431 14 -432 0
-432 -15 -433 0
-432 15 433 0
432 -15 433 0
432 15 -433 0
-433 -16 -434 0
-433 16 434 0
433 -16 434 0
433 16 -434 0
-434 -17 -435 0
-434 17 435 0
434 -17 435 0
434 17 -435 0
-435 -18 -436 0
-435 18 436 0
435 -18 436 0
435 18 -436 0
-21 -22 -437 0
-21 22 437 0
21 -22 437 0
21 22 -437 0
-437 -23 -438 0
-437 23 438 0
437 -23 438 0
437 23 -438 0
-438 -24 -439 0
-438 24 439 0
438 -24 439 0
438 24 -439 0
-439 -25 -440 0
-439 25 440 0
439 -25 440 0
439 25 -440 0
-440 -26 -441 0
-440 26 441 0
440 -26 441 0
440 26 -441 0
-441 -27 -442 0
-441 27 442 0
441 -27 442 0
441 27 -442 0
-442 -28 -443 0
-442 28 443 0
442 -28 443 0
442 28 -443 0
-443 -31 -444 0
-443 31 444 0
443 -31 444 0
443 31 -444 0
-444 -32 -445 0
-444 32 445 0
444 -32 445 0
444 32 -445 0
-445 -33 -446 0
-445 33 446 0
445 -33 446 0
445 33 -446 0
-446 -34 -447 0
-446 34 447 0
446 -34 447 0
446 34 -447 0
-447 -35 -448 0
-447 35 448 0
447 -35 448 0
447 35 -448 0
-448 -36 -449 0
-448 36 449 0
448 -36 449 0
448 36 -449 0
-449 -37 -450 0
-449 37 450 0
449 -37 450 0
449 37 -450 0
-450 -38 -451 0
-450 38 451 0
450 -38 451 0
450 38 -451 0
436 451 0
-13 -19 -452 0
-13 19 452 0
13 -19 452 0
13 19 -452 0
-3 -9 -453 0
-3 9 453 0
3 -9 453 0
3 9 -453 0
-453 -33 -454 0
-453 33 454 0
453 -33 454 0
453 33 -454 0
-454 -39 -455 0
-454 39 455 0
454 -39 455 0
454 39 -455 0
452 455 0
-11 -13 -456 0
-11 13 456 0
11 -13 456 0
11 13 -456 0
-456 -19 -457 0
-456 19 457 0
456 -19 457 0
456 19 -457 0
-31 -33 -458 0
-31 33 458 0
31 -33 458 0
31 33 -458 0
-458 -39 -459 0
-458 39 459 0
458 -39 459 0
458 39 -459 0
457 459 0
-11 -13 -460 0
-11 13 460 0
11 -13 460 0
11 13 -460 0
-460 -17 -461 0
-460 17 461 0
460 -17 461 0
460 17 -461 0
-461 -19 -462 0
-461 19 462 0
461 -19 462 0
461 19 -462 0
-31 -33 -463 0
-31 33 463 0
31 -33 463 0
31 33 -463 0
-463 -37 -464 0
-463 37 464 0
463 -37 464 0
463 37 -464 0
-464 -39 -465 0
-464 39 465 0
464 -39 465 0
464 39 -465 0
462 465 0
-11 -13 -466 0
-11 13 466 0
11 -13 466 0
11 13 -466 0
-466 -15 -467 0
-466 15 467 0
466 -15 467 0
466 15 -467 0
-467 -17 -468 0
-467 17 468 0
467 -17 468 0
467 17 -468 0
-468 -19 -469 0
-468 19 469 0
468 -19 469 0
468 19 -469 0
-1 -3 -470 0
-1 3 470 0
1 -3 470 0
1 3 -470 0
-470 -5 -471 0
-470 5 471 0
470 -5 471 0
470 5 -471 0
-471 -7 -472 0
-471 7 472 0
471 -7 472 0
471 7 -472 0
-472 -9 -473 0
-472 9 473 0
472 -9 473 0
472 9 -473 0
-473 -21 -474 0
-473 21 474 0
473 -21 474 0
473 21 -474 0
-474 -23 -475 0
-474 23 475 0
474 -23 475 0
474 23 -475 0
-475 -25 -476 0
-475 25 476 0
475 -25 476 0
475 25 -476 0
-476 -27 -477 0
-476 27 477 0
476 -27 477 0
476 27 -477 0
-477 -29 -478 0
-477 29 478 0
477 -29 478 0
477 29 -478 0
469 478 0
-15 -18 -479 0
-15 18 479 0
15 -18 479 0
15 18 -479 0
-479 -19 -480 0
-479 19 480 0
479 -19 480 0
479 19 -480 0
-25 -28 -481 0
-25 28 481 0
25 -28 481 0
25 28 -481 0
-481 -29 -482 0
-481 29 482 0
481 -29 482 0
481 29 -482 0
480 482 0
-11 -15 -483 0
-11 15 483 0
11 -15 483 0
11 15 -483 0
-483 -18 -484 0
-483 18 484 0
483 -18 484 0
483 18 -484 0
-484 -19 -485 0
-484 19 485 0
484 -19 485 0
484 19 -485 0
-21 -25 -486 0
-21 25 486 0
21 -25 486 0
21 25 -486 0
-486 -28 -487 0
-486 28 487 0
486 -28 487 0
486 28 -487 0
-487 -29 -488 0
-487 29 488 0
487 -29 488 0
487 29 -488 0
485 488 0
-11 -14 -489 0
-11 14 489 0
11 -14 489 0
11 14 -489 0
-489 -15 -490 0
-489 15 490 0
489 -15 490 0
489 15 -490 0
-490 -18 -491 0
-490 18 491 0
490 -18 491 0
490 18 -491 0
-491 -19 -492 0
-491 19 492 0
491 -19 492 0
491 19 -492 0
-1 -4 -493 0
-1 4 493 0
1 -4 493 0
1 4 -493 0
-493 -5 -494 0
-493 5 494 0
493 -5 494 0
493 5 -494 0
-494 -8 -495 0
-494 8 495 0
494 -8 495 0
494 8 -495 0
-495 -9 -496 0
-495 9 496 0
495 -9 496 0
495 9 -496 0
-496 -31 -497 0
-496 31 497 0
496 -31 497 0
496 31 -497 0
-497 -34 -498 0
-497 34 498 0
497 -34 498 0
497 34 -498 0
-498 -35 -499 0
-498 35 499 0
498 -35 499 0
498 35 -499 0
-499 -38 -500 0
-499 38 500 0
499 -38 500 0
499 38 -500 0
-500 -39 -501 0
-500 39 501 0
500 -39 501 0
500 39 -501 0
492 501 0
-14 -15 -502 0
-14 15 502 0
14 -15 502 0
14 15 -502 0
-502 -17 -503 0
-502 17 503 0
502 -17 503 0
502 17 -503 0
-503 -18 -504 0
-503 18 504 0
503 -18 504 0
503 18 -504 0
-504 -19 -505 0
-504 19 505 0
504 -19 505 0
504 19 -505 0
-4 -5 -506 0
-4 5 506 0
4 -5 506 0
4 5 -506 0
-506 -7 -507 0
-506 7 507 0
506 -7 507 0
506 7 -507 0
-507 -8 -508 0
-507 8 508 0
507 -8 508 0
507 8 -508 0
-508 -9 -509 0
-508 9 509 0
508 -9 509 0
508 9 -509 0
-509 -24 -510 0
-509 24 510 0
509 -24 510 0
509 24 -510 0
-510 -25 -511 0
-510 25 511 0
510 -25 511 0
510 25 -511 0
-511 -27 -512 0
-511 27 512 0
511 -27 512 0
511 27 -512 0
-512 -28 -513 0
-512 28 513 0
512 -28 513 0
512 28 -513 0
-513 -29 -514 0
-513 29 514 0
513 -29 514 0
513 29 -514 0
505 514 0
-9 -10 -515 0
-9 10 515 0
9 -10 515 0
9 10 -515 0
-515 -19 -516 0
-515 19 516 0
515 -19 516 0
515 19 -516 0
-516 -20 -517 0
-516 20 517 0
516 -20 517 0
516 20 -517 0
-9 -10 -518 0
-9 10 518 0
9 -10 518 0
9 10 -518 0
-518 -29 -519 0
-518 29 519 0
518 -29 519 0
518 29 -519 0
-519 -30 -520 0
-519 30 520 0
519 -30 520 0
519 30 -520 0
517 520 0
-1 -2 -521 0
-1 2 521 0
1 -2 521 0
1 2 -521 0
-521 -3 -522 0
-521 3 522 0
521 -3 522 0
521 3 -522 0
-522 -9 -523 0
-522 9 523 0
522 -9 523 0
522 9 -523 0
-523 -10 -524 0
-523 10 524 0
523 -10 524 0
523 10 -524 0
-524 -11 -525 0
-524 11 525 0
524 -11 525 0
524 11 -525 0
-525 -12 -526 0
-525 12 526 0
525 -12 526 0
525 12 -526 0
-526 -13 -527 0
-526 13 527 0
526 -13 527 0
526 13 -527 0
-527 -19 -528 0
-527 19 528 0
527 -19 528 0
527 19 -528 0
-528 -20 -529 0
-528 20 529 0
528 -20 529 0
528 20 -529 0
-31 -32 -530 0
-31 32 530 0
31 -32 530 0
31 32 -530 0
-530 -33 -531 0
-530 33 531 0
530 -33 531 0
530 33 -531 0
-531 -39 -532 0
-531 39 532 0
531 -39 532 0
531 39 -532 0
-532 -40 -533 0
-532 40 533 0
532 -40 533 0
532 40 -533 0
529 533 0
-4 -9 -534 0
-4 9 534 0
4 -9 534 0
4 9 -534 0
-534 -10 -535 0
-534 10 535 0
534 -10 535 0
534 10 -535 0
-535 -14 -536 0
-535 14 536 0
535 -14 536 0
535 14 -536 0
-536 -19 -537 0
-536 19 537 0
536 -19 537 0
536 19 -537 0
-537 -20 -538 0
-537 20 538 0
537 -20 538 0
537 20 -538 0
-24 -29 -539 0
-24 29 539 0
24 -29 539 0
24 29 -539 0
-539 -30 -540 0
-539 30 540 0
539 -30 540 0
539 30 -540 0
538 540 0
-1 -2 -541 0
-1 2 541 0
1 -2 541 0
1 2 -541 0
-541 -3 -542 0
-541 3 542 0
541 -3 542 0
541 3 -542 0
-542 -4 -543 0
-542 4 543 0
542 -4 543 0
542 4 -543 0
-543 -9 -544 0
-543 9 544 0
543 -9 544 0
543 9 -544 0
-544 -10 -545 0
-544 10 545 0
544 -10 545 0
544 10 -545 0
-545 -11 -546 0
-545 11 546 0
545 -11 546 0
545 11 -546 0
-546 -12 -547 0
-546 12 547 0
546 -12 547 0
546 12 -547 0
-547 -13 -548 0
-547 13 548 0
547 -13 548 0
547 13 -548 0
-548 -14 -549 0
-548 14 549 0
548 -14 549 0
548 14 -549 0
-549 -19 -550 0
-549 19 550 0
549 -19 550 0
549 19 -550 0
-550 -20 -551 0
-550 20 551 0
550 -20 551 0
550 20 -551 0
-21 -22 -552 0
-21 22 552 0
21 -22 552 0
21 22 -552 0
-552 -23 -553 0
-552 23 553 0
552 -23 553 0
552 23 -553 0
-553 -24 -554 0
-553 24 554 0
553 -24 554 0
553 24 -554 0
-554 -29 -555 0
-554 29 555 0
554 -29 555 0
554 29 -555 0
-555 -30 -556 0
-555 30 556 0
555 -30 556 0
555 30 -556 0
-556 -31 -557 0
-556 31 557 0
556 -31 557 0
556 31 -557 0
-557 -32 -558 0
-557 32 558 0
557 -32 558 0
557 32 -558 0
-558 -33 -559 0
-558 33 559 0
558 -33 559 0
558 33 -559 0
-559 -34 -560 0
-559 34 560 0
559 -34 560 0
559 34 -560 0
-560 -39 -561 0
-560 39 561 0
560 -39 561 0
560 39 -561 0
-561 -40 -562 0
-561 40 562 0
561 -40 562 0
561 40 -562 0
551 562 0
-1 -2 -563 0
-1 2 563 0
1 -2 563 0
1 2 -563 0
-563 -5 -564 0
-563 5 564 0
563 -5 564 0
563 5 -564 0
-564 -6 -565 0
-564 6 565 0
564 -6 565 0
564 6 -565 0
-565 -9 -566 0
-565 9 566 0
565 -9 566 0
565 9 -566 0
-566 -10 -567 0
-566 10 567 0
566 -10 567 0
566 10 -567 0
-567 -11 -568 0
-567 11 568 0
567 -11 568 0
567 11 -568 0
-568 -12 -569 0
-568 12 569 0
568 -12 569 0
568 12 -569 0
-569 -15 -570 0
-569 15 570 0
569 -15 570 0
569 15 -570 0
-570 -16 -571 0
-570 16 571 0
570 -16 571 0
570 16 -571 0
-571 -19 -572 0
-571 19 572 0
571 -19 572 0
571 19 -572 0
-572 -20 -573 0
-572 20 573 0
572 -20 573 0
572 20 -573 0
-21 -22 -574 0
-21 22 574 0
21 -22 574 0
21 22 -574 0
-574 -25 -575 0
-574 25 575 0
574 -25 575 0
574 25 -575 0
-575 -26 -576 0
-575 26 576 0
575 -26 576 0
575 26 -576 0
-576 -29 -577 0
-576 29 577 0
576 -29 577 0
576 29 -577 0
-577 -30 -578 0
-577 30 578 0
577 -30 578 0
577 30 -578 0
-578 -31 -579 0
-578 31 579 0
578 -31 579 0
578 31 -579 0
-579 -32 -580 0
-579 32 580 0
579 -32 580 0
579 32 -580 0
-580 -35 -581 0
-580 35 581 0
580 -35 581 0
580 35 -581 0
-581 -36 -582 0
-581 36 582 0
581 -36 582 0
581 36 -582 0
-582 -39 -583 0
-582 39 583 0
582 -39 583 0
582 39 -583 0
-583 -40 -584 0
-583 40 584 0
583 -40 584 0
583 40 -584 0
573 584 0
-1 -2 -585 0
-1 2 585 0
1 -2 585 0
1 2 -585 0
-585 -4 -586 0
-585 4 586 0
585 -4 586 0
585 4 -586 0
-586 -5 -587 0
-586 5 587 0
586 -5 587 0
586 5 -587 0
-587 -6 -588 0
-587 6 588 0
587 -6 588 0
587 6 -588 0
-588 -9 -589 0
-588 9 589 0
588 -9 589 0
588 9 -589 0
-589 -10 -590 0
-589 10 590 0
589 -10 590 0
589 10 -590 0
-590 -11 -591 0
-590 11 591 0
590 -11 591 0
590 11 -591 0
-591 -12 -592 0
-591 12 592 0
591 -12 592 0
591 12 -592 0
-592 -14 -593 0
-592 14 593 0
592 -14 593 0
592 14 -593 0
-593 -15 -594 0
-593 15 594 0
593 -15 594 0
593 15 -594 0
-594 -16 -595 0
-594 16 595 0
594 -16 595 0
594 16 -595 0
-595 -19 -596 0
-595 19 596 0
595 -19 596 0
595 19 -596 0
-596 -20 -597 0
-596 20 597 0
596 -20 597 0
596 20 -597 0
-21 -22 -598 0
-21 22 598 0
21 -22 598 0
21 22 -598 0
-598 -24 -599 0
-598 24 599 0
598 -24 599 0
598 24 -599 0
-599 -25 -600 0
-599 25 600 0
599 -25 600 0
599 25 -600 0
-600 -26 -601 0
-600 26 601 0
600 -26 601 0
600 26 -601 0
-601 -29 -602 0
-601 29 602 0
601 -29 602 0
601 29 -602 0
-602 -30 -603 0
-602 30 603 0
602 -30 603 0
602 30 -603 0
597 603 0
-1 -2 -604 0
-1 2 604 0
1 -2 604 0
1 2 -604 0
-604 -7 -605 0
-604 7 605 0
604 -7 605 0
604 7 -605 0
-605 -9 -606 0
-605 9 606 0
605 -9 606 0
605 9 -606 0
-606 -10 -607 0
-606 10 607 0
606 -10 607 0
606 10 -607 0
-607 -11 -608 0
-607 11 608 0
607 -11 608 0
607 11 -608 0
-608 -12 -609 0
-608 12 609 0
608 -12 609 0
608 12 -609 0
-609 -17 -610 0
-609 17 610 0
609 -17 610 0
609 17 -610 0
-610 -19 -611 0
-610 19 611 0
610 -19 611 0
610 19 -611 0
-611 -20 -612 0
-611 20 612 0
611 -20 612 0
611 20 -612 0
-31 -32 -613 0
-31 32 613 0
31 -32 613 0
31 32 -613 0
-613 -37 -614 0
-613 37 614 0
613 -37 614 0
613 37 -614 0
-614 -39 -615 0
-614 39 615 0
614 -39 615 0
614 39 -615 0
-615 -40 -616 0
-615 40 616 0
615 -40 616 0
615 40 -616 0
612 616 0
-5 -6 -617 0
-5 6 617 0
5 -6 617 0
5 6 -617 0
-617 -7 -618 0
-617 7 618 0
617 -7 618 0
617 7 -618 0
-618 -9 -619 0
-618 9 619 0
618 -9 619 0
618 9 -619 0
-619 -10 -620 0
-619 10 620 0
619 -10 620 0
619 10 -620 0
-620 -15 -621 0
-620 15 621 0
620 -15 621 0
620 15 -621 0
-621 -16 -622 0
-621 16 622 0
621 -16 622 0
621 16 -622 0
-622 -17 -623 0
-622 17 623 0
622 -17 623 0
622 17 -623 0
-623 -19 -624 0
-623 19 624 0
623 -19 624 0
623 19 -624 0
-624 -20 -625 0
-624 20 625 0
624 -20 625 0
624 20 -625 0
-5 -6 -626 0
-5 6 626 0
5 -6 626 0
5 6 -626 0
-626 -7 -627 0
-626 7 627 0
626 -7 627 0
626 7 -627 0
-627 -9 -628 0
-627 9 628 0
627 -9 628 0
627 9 -628 0
-628 -10 -629 0
-628 10 629 0
628 -10 629 0
628 10 -629 0
-629 -25 -630 0
-629 25 630 0
629 -25 630 0
629 25 -630 0
-630 -26 -631 0
-630 26 631 0
630 -26 631 0
630 26 -631 0
-631 -27 -632 0
-631 27 632 0
631 -27 632 0
631 27 -632 0
-632 -29 -633 0
-632 29 633 0
632 -29 633 0
632 29 -633 0
-633 -30 -634 0
-633 30 634 0
633 -30 634 0
633 30 -634 0
625 634 0
-4 -8 -635 0
-4 8 635 0
4 -8 635 0
4 8 -635 0
-635 -9 -636 0
-635 9 636 0
635 -9 636 0
635 9 -636 0
-636 -10 -637 0
-636 10 637 0
636 -10 637 0
636 10 -637 0
-637 -14 -638 0
-637 14 638 0
637 -14 638 0
637 14 -638 0
-638 -18 -639 0
-638 18 639 0
638 -18 639 0
638 18 -639 0
-639 -19 -640 0
-639 19 640 0
639 -19 640 0
639 19 -640 0
-640 -20 -641 0
-640 20 641 0
640 -20 641 0
640 20 -641 0
-4 -8 -642 0
-4 8 642 0
4 -8 642 0
4 8 -642 0
-642 -9 -643 0
-642 9 643 0
642 -9 643 0
642 9 -643 0
-643 -10 -644 0
-643 10 644 0
643 -10 644 0
643 10 -644 0
-644 -24 -645 0
-644 24 645 0
644 -24 645 0
644 24 -645 0
-645 -28 -646 0
-645 28 646 0
645 -28 646 0
645 28 -646 0
-646 -29 -647 0
-646 29 647 0
646 -29 647 0
646 29 -647 0
-647 -30 -648 0
-647 30 648 0
647 -30 648 0
647 30 -648 0
641 648 0
-1 -2 -649 0
-1 2 649 0
1 -2 649 0
1 2 -649 0
-649 -4 -650 0
-649 4 650 0
649 -4 650 0
649 4 -650 0
-650 -5 -651 0
-650 5 651 0
650 -5 651 0
650 5 -651 0
-651 -6 -652 0
-651 6 652 0
651 -6 652 0
651 6 -652 0
-652 -8 -653 0
-652 8 653 0
652 -8 653 0
652 8 -653 0
-653 -9 -654 0
-653 9 654 0
653 -9 654 0
653 9 -654 0
-654 -10 -655 0
-654 10 655 0
654 -10 655 0
654 10 -655 0
-655 -11 -656 0
-655 11 656 0
655 -11 656 0
655 11 -656 0
-656 -12 -657 0
-656 12 657 0
656 -12 657 0
656 12 -657 0
-657 -14 -658 0
-657 14 658 0
657 -14 658 0
657 14 -658 0
-658 -15 -659 0
-658 15 659 0
658 -15 659 0
658 15 -659 0
-659 -16 -660 0
-659 16 660 0
659 -16 660 0
659 16 -660 0
-660 -18 -661 0
-660 18 661 0
660 -18 661 0
660 18 -661 0
-661 -19 -662 0
-661 19 662 0
661 -19 662 0
661 19 -662 0
-662 -20 -663 0
-662 20 663 0
662 -20 663 0
662 20 -663 0
-1 -2 -664 0
-1 2 664 0
1 -2 664 0
1 2 -664 0
-664 -4 -665 0
-664 4 665 0
664 -4 665 0
664 4 -665 0
-665 -5 -666 0
-665 5 666 0
665 -5 666 0
665 5 -666 0
-666 -6 -667 0
-666 6 667 0
666 -6 667 0
666 6 -667 0
-667 -8 -668 0
-667 8 668 0
667 -8 668 0
667 8 -668 0
-668 -9 -669 0
-668 9 669 0
668 -9 669 0
668 9 -669 0
-669 -10 -670 0
-669 10 670 0
669 -10 670 0
669 10 -670 0
-670 -21 -671 0
-670 21 671 0
670 -21 671 0
670 21 -671 0
-671 -22 -672 0
-671 22 672 0
671 -22 672 0
671 22 -672 0
-672 -24 -673 0
-672 24 673 0
672 -24 673 0
672 24 -673 0
-673 -25 -674 0
-673 25 674 0
673 -25 674 0
673 25 -674 0
-674 -26 -675 0
-674 26 675 0
674 -26 675 0
674 26 -675 0
-675 -28 -676 0
-675 28 676 0
675 -28 676 0
675 28 -676 0
-676 -29 -677 0
-676 29 677 0
676 -29 677 0
676 29 -677 0
-677 -30 -678 0
-677 30 678 0
677 -30 678 0
677 30 -678 0
-678 -31 -679 0
-678 31 679 0
678 -31 679 0
678 31 -679 0
-679 -32 -680 0
-679 32 680 0
679 -32 680 0
679 32 -680 0
-680 -34 -681 0
-680 34 681 0
680 -34 681 0
680 34 -681 0
-681 -35 -682 0
-681 35 682 0
681 -35 682 0
681 35 -682 0
-682 -36 -683 0
-682 36 683 0
682 -36 683 0
682 36 -683 0
-683 -38 -684 0
-683 38 684 0
683 -38 684 0
683 38 -684 0
-684 -39 -685 0
-684 39 685 0
684 -39 685 0
684 39 -685 0
-685 -40 -686 0
-685 40 686 0
685 -40 686 0
685 40 -686 0
663 686 0
-3 -4 -687 0
-3 4 687 0
3 -4 687 0
3 4 -687 0
-687 -5 -688 0
-687 5 688 0
687 -5 688 0
687 5 -688 0
-688 -6 -689 0
-688 6 689 0
688 -6 689 0
688 6 -689 0
-689 -8 -690 0
-689 8 690 0
689 -8 690 0
689 8 -690 0
-690 -9 -691 0
-690 9 691 0
690 -9 691 0
690 9 -691 0
-691 -10 -692 0
-691 10 692 0
691 -10 692 0
691 10 -692 0
-692 -13 -693 0
-692 13 693 0
692 -13 693 0
692 13 -693 0
-693 -14 -694 0
-693 14 694 0
693 -14 694 0
693 14 -694 0
-694 -15 -695 0
-694 15 695 0
694 -15 695 0
694 15 -695 0
-695 -16 -696 0
-695 16 696 0
695 -16 696 0
695 16 -696 0
-696 -18 -697 0
-696 18 697 0
696 -18 697 0
696 18 -697 0
-697 -19 -698 0
-697 19 698 0
697 -19 698 0
697 19 -698 0
-698 -20 -699 0
-698 20 699 0
698 -20 699 0
698 20 -699 0
-3 -4 -700 0
-3 4 700 0
3 -4 700 0
3 4 -700 0
-700 -5 -701 0
-700 5 701 0
700 -5 701 0
700 5 -701 0
-701 -6 -702 0
-701 6 702 0
701 -6 702 0
701 6 -702 0
-702 -8 -703 0
-702 8 703 0
702 -8 703 0
702 8 -703 0
-703 -9 -704 0
-703 9 704 0
703 -9 704 0
703 9 -704 0
-704 -10 -705 0
-704 10 705 0
704 -10 705 0
704 10 -705 0
-705 -23 -706 0
-705 23 706 0
705 -23 706 0
705 23 -706 0
-706 -24 -707 0
-706 24 707 0
706 -24 707 0
706 24 -707 0
-707 -25 -708 0
-707 25 708 0
707 -25 708 0
707 25 -708 0
-708 -26 -709 0
-708 26 709 0
708 -26 709 0
708 26 -709 0
-709 -28 -710 0
-709 28 710 0
709 -28 710 0
709 28 -710 0
-710 -29 -711 0
-710 29 711 0
710 -29 711 0
710 29 -711 0
-711 -30 -712 0
-711 30 712 0
711 -30 712 0
711 30 -712 0
-712 -33 -713 0
-712 33 713 0
712 -33 713 0
712 33 -713 0
-713 -34 -714 0
-713 34 714 0
713 -34 714 0
713 34 -714 0
-714 -35 -715 0
-714 35 715 0
714 -35 715 0
714 35 -715 0
-715 -36 -716 0
-715 36 716 0
715 -36 716 0
715 36 -716 0
-716 -38 -717 0
-716 38 717 0
716 -38 717 0
716 38 -717 0
-717 -39 -718 0
-717 39 718 0
717 -39 718 0
717 39 -718 0
-718 -40 -719 0
-718 40 719 0
718 -40 719 0
718 40 -719 0
699 719 0
-3 -4 -720 0
-3 4 720 0
3 -4 720 0
3 4 -720 0
-720 -7 -721 0
-720 7 721 0
720 -7 721 0
720 7 -721 0
-721 -8 -722 0
-721 8 722 0
721 -8 722 0
721 8 -722 0
-722 -9 -723 0
-722 9 723 0
722 -9 723 0
722 9 -723 0
-723 -10 -724 0
-723 10 724 0
723 -10 724 0
723 10 -724 0
-724 -13 -725 0
-724 13 725 0
724 -13 725 0
724 13 -725 0
-725 -14 -726 0
-725 14 726 0
725 -14 726 0
725 14 -726 0
-726 -17 -727 0
-726 17 727 0
726 -17 727 0
726 17 -727 0
-727 -18 -728 0
-727 18 728 0
727 -18 728 0
727 18 -728 0
-728 -19 -729 0
-728 19 729 0
728 -19 729 0
728 19 -729 0
-729 -20 -730 0
-729 20 730 0
729 -20 730 0
729 20 -730 0
-23 -24 -731 0
-23 24 731 0
23 -24 731 0
23 24 -731 0
-731 -27 -732 0
-731 27 732 0
731 -27 732 0
731 27 -732 0
-732 -28 -733 0
-732 28 733 0
732 -28 733 0
732 28 -733 0
-733 -29 -734 0
-733 29 734 0
733 -29 734 0
733 29 -734 0
-734 -30 -735 0
-734 30 735 0
734 -30 735 0
734 30 -735 0
-735 -33 -736 0
-735 33 736 0
735 -33 736 0
735 33 -736 0
-736 -34 -737 0
-736 34 737 0
736 -34 737 0
736 34 -737 0
-737 -37 -738 0
-737 37 738 0
737 -37 738 0
737 37 -738 0
-738 -38 -739 0
-738 38 739 0
738 -38 739 0
738 38 -739 0
-739 -39 -740 0
-739 39 740 0
739 -39 740 0
739 39 -740 0
-740 -40 -741 0
-740 40 741 0
740 -40 741 0
740 40 -741 0
730 741 0
-5 -6 -742 0
-5 6 742 0
5 -6 742 0
5 6 -742 0
-742 -7 -743 0
-742 7 743 0
742 -7 743 0
742 7 -743 0
-743 -8 -744 0
-743 8 744 0
743 -8 744 0
743 8 -744 0
-744 -9 -745 0
-744 9 745 0
744 -9 745 0
744 9 -745 0
-745 -10 -746 0
-745 10 746 0
745 -10 746 0
745 10 -746 0
-746 -15 -747 0
-746 15 747 0
746 -15 747 0
746 15 -747 0
-747 -16 -748 0
-747 16 748 0
747 -16 748 0
747 16 -748 0
-748 -17 -749 0
-748 17 749 0
748 -17 749 0
748 17 -749 0
-749 -18 -750 0
-749 18 750 0
749 -18 750 0
749 18 -750 0
-750 -19 -751 0
-750 19 751 0
750 -19 751 0
750 19 -751 0
-751 -20 -752 0
-751 20 752 0
751 -20 752 0
751 20 -752 0
-25 -26 -753 0
-25 26 753 0
25 -26 753 0
25 26 -753 0
-753 -27 -754 0
-753 27 754 0
753 -27 754 0
753 27 -754 0
-754 -28 -755 0
-754 28 755 0
754 -28 755 0
754 28 -755 0
-755 -29 -756 0
-755 29 756 0
755 -29 756 0
755 29 -756 0
-756 -30 -757 0
-756 30 757 0
756 -30 757 0
756 30 -757 0
-757 -35 -758 0
-757 35 758 0
757 -35 758 0
757 35 -758 0
-758 -36 -759 0
-758 36 759 0
758 -36 759 0
758 36 -759 0
-759 -37 -760 0
-759 37 760 0
759 -37 760 0
759 37 -760 0
-760 -38 -761 0
-760 38 761 0
760 -38 761 0
760 38 -761 0
-761 -39 -762 0
-761 39 762 0
761 -39 762 0
761 39 -762 0
-762 -40 -763 0
-762 40 763 0
762 -40 763 0
762 40 -763 0
752 763 0
-4 -5 -764 0
-4 5 764 0
4 -5 764 0
4 5 -764 0
-764 -6 -765 0
-764 6 765 0
764 -6 765 0
764 6 -765 0
-765 -7 -766 0
-765 7 766 0
765 -7 766 0
765 7 -766 0
-766 -8 -767 0
-766 8 767 0
766 -8 767 0
766 8 -767 0
-767 -9 -768 0
-767 9 768 0
767 -9 768 0
767 9 -768 0
-768 -10 -769 0
-768 10 769 0
768 -10 769 0
768 10 -769 0
-769 -14 -770 0
-769 14 770 0
769 -14 770 0
769 14 -770 0
-770 -15 -771 0
-770 15 771 0
770 -15 771 0
770 15 -771 0
-771 -16 -772 0
-771 16 772 0
771 -16 772 0
771 16 -772 0
-772 -17 -773 0
-772 17 773 0
772 -17 773 0
772 17 -773 0
-773 -18 -774 0
-773 18 774 0
773 -18 774 0
773 18 -774 0
-774 -19 -775 0
-774 19 775 0
774 -19 775 0
774 19 -775 0
-775 -20 -776 0
-775 20 776 0
775 -20 776 0
775 20 -776 0
-4 -5 -777 0
-4 5 777 0
4 -5 777 0
4 5 -777 0
-777 -6 -778 0
-777 6 778 0
777 -6 778 0
777 6 -778 0
-778 -7 -779 0
-778 7 779 0
778 -7 779 0
778 7 -779 0
-779 -8 -780 0
-779 8 780 0
779 -8 780 0
779 8 -780 0
-780 -9 -781 0
-780 9 781 0
780 -9 781 0
780 9 -781 0
-781 -10 -782 0
-781 10 782 0
781 -10 782 0
781 10 -782 0
-782 -24 -783 0
-782 24 783 0
782 -24 783 0
782 24 -783 0
-783 -25 -784 0
-783 25 784 0
783 -25 784 0
783 25 -784 0
-784 -26 -785 0
-784 26 785 0
784 -26 785 0
784 26 -785 0
-785 -27 -786 0
-785 27 786 0
785 -27 786 0
785 27 -786 0
-786 -28 -787 0
-786 28 787 0
786 -28 787 0
786 28 -787 0
-787 -29 -788 0
-787 29 788 0
787 -29 788 0
787 29 -788 0
-788 -30 -789 0
-788 30 789 0
788 -30 789 0
788 30 -789 0
776 789 0
-1 -2 -790 0
-1 2 790 0
1 -2 790 0
1 2 -790 0
-790 -11 -791 0
-790 11 791 0
790 -11 791 0
790 11 -791 0
-791 -12 -792 0
-791 12 792 0
791 -12 792 0
791 12 -792 0
-792 -21 -793 0
-792 21 793 0
792 -21 793 0
792 21 -793 0
-793 -22 -794 0
-793 22 794 0
793 -22 794 0
793 22 -794 0
-1 -2 -795 0
-1 2 795 0
1 -2 795 0
1 2 -795 0
-795 -11 -796 0
-795 11 796 0
795 -11 796 0
795 11 -796 0
-796 -12 -797 0
-796 12 797 0
796 -12 797 0
796 12 -797 0
-797 -31 -798 0
-797 31 798 0
797 -31 798 0
797 31 -798 0
-798 -32 -799 0
-798 32 799 0
798 -32 799 0
798 32 -799 0
794 799 0
-21 -22 -800 0
-21 22 800 0
21 -22 800 0
21 22 -800 0
-800 -25 -801 0
-800 25 801 0
800 -25 801 0
800 25 -801 0
-31 -32 -802 0
-31 32 802 0
31 -32 802 0
31 32 -802 0
-802 -35 -803 0
-802 35 803 0
802 -35 803 0
802 35 -803 0
801 803 0
-11 -12 -804 0
-11 12 804 0
11 -12 804 0
11 12 -804 0
-804 -13 -805 0
-804 13 805 0
804 -13 805 0
804 13 -805 0
-805 -15 -806 0
-805 15 806 0
805 -15 806 0
805 15 -806 0
-806 -21 -807 0
-806 21 807 0
806 -21 807 0
806 21 -807 0
-807 -22 -808 0
-807 22 808 0
807 -22 808 0
807 22 -808 0
-808 -23 -809 0
-808 23 809 0
808 -23 809 0
808 23 -809 0
-809 -25 -810 0
-809 25 810 0
809 -25 810 0
809 25 -810 0
-31 -32 -811 0
-31 32 811 0
31 -32 811 0
31 32 -811 0
-811 -33 -812 0
-811 33 812 0
811 -33 812 0
811 33 -812 0
-812 -35 -813 0
-812 35 813 0
812 -35 813 0
812 35 -813 0
810 813 0
-21 -26 -814 0
-21 26 814 0
21 -26 814 0
21 26 -814 0
-31 -36 -815 0
-31 36 815 0
31 -36 815 0
31 36 -815 0
814 815 0
-2 -6 -816 0
-2 6 816 0
2 -6 816 0
2 6 -816 0
-816 -22 -817 0
-816 22 817 0
816 -22 817 0
816 22 -817 0
-817 -26 -818 0
-817 26 818 0
817 -26 818 0
817 26 -818 0
-2 -6 -819 0
-2 6 819 0
2 -6 819 0
2 6 -819 0
-819 -32 -820 0
-819 32 820 0
819 -32 820 0
819 32 -820 0
-820 -36 -821 0
-820 36 821 0
820 -36 821 0
820 36 -821 0
818 821 0
-22 -25 -822 0
-22 25 822 0
22 -25 822 0
22 25 -822 0
-822 -26 -823 0
-822 26 823 0
822 -26 823 0
822 26 -823 0
-32 -35 -824 0
-32 35 824 0
32 -35 824 0
32 35 -824 0
-824 -36 -825 0
-824 36 825 0
824 -36 825 0
824 36 -825 0
823 825 0
-1 -2 -826 0
-1 2 826 0
1 -2 826 0
1 2 -826 0
-826 -3 -827 0
-826 3 827 0
826 -3 827 0
826 3 -827 0
-827 -5 -828 0
-827 5 828 0
827 -5 828 0
827 5 -828 0
-828 -7 -829 0
-828 7 829 0
828 -7 829 0
828 7 -829 0
-829 -21 -830 0
-829 21 830 0
829 -21 830 0
829 21 -830 0
-830 -22 -831 0
-830 22 831 0
830 -22 831 0
830 22 -831 0
-831 -23 -832 0
-831 23 832 0
831 -23 832 0
831 23 -832 0
-832 -25 -833 0
-832 25 833 0
832 -25 833 0
832 25 -833 0
-833 -27 -834 0
-833 27 834 0
833 -27 834 0
833 27 -834 0
-31 -32 -835 0
-31 32 835 0
31 -32 835 0
31 32 -835 0
-835 -33 -836 0
-835 33 836 0
835 -33 836 0
835 33 -836 0
-836 -35 -837 0
-836 35 837 0
836 -35 837 0
836 35 -837 0
-837 -37 -838 0
-837 37 838 0
837 -37 838 0
837 37 -838 0
834 838 0
-1 -3 -839 0
-1 3 839 0
1 -3 839 0
1 3 -839 0
-839 -6 -840 0
-839 6 840 0
839 -6 840 0
839 6 -840 0
-840 -7 -841 0
-840 7 841 0
840 -7 841 0
840 7 -841 0
-841 -11 -842 0
-841 11 842 0
841 -11 842 0
841 11 -842 0
-842 -13 -843 0
-842 13 843 0
842 -13 843 0
842 13 -843 0
-843 -16 -844 0
-843 16 844 0
843 -16 844 0
843 16 -844 0
-844 -17 -845 0
-844 17 845 0
844 -17 845 0
844 17 -845 0
-845 -21 -846 0
-845 21 846 0
845 -21 846 0
845 21 -846 0
-846 -23 -847 0
-846 23 847 0
846 -23 847 0
846 23 -847 0
-847 -26 -848 0
-847 26 848 0
847 -26 848 0
847 26 -848 0
-848 -27 -849 0
-848 27 849 0
848 -27 849 0
848 27 -849 0
-31 -33 -850 0
-31 33 850 0
31 -33 850 0
31 33 -850 0
-850 -36 -851 0
-850 36 851 0
850 -36 851 0
850 36 -851 0
-851 -37 -852 0
-851 37 852 0
851 -37 852 0
851 37 -852 0
849 852 0
-21 -24 -853 0
-21 24 853 0
21 -24 853 0
21 24 -853 0
-853 -25 -854 0
-853 25 854 0
853 -25 854 0
853 25 -854 0
-854 -28 -855 0
-854 28 855 0
854 -28 855 0
854 28 -855 0
-1 -4 -856 0
-1 4 856 0
1 -4 856 0
1 4 -856 0
-856 -5 -857 0
-856 5 857 0
856 -5 857 0
856 5 -857 0
-857 -8 -858 0
-857 8 858 0
857 -8 858 0
857 8 -858 0
-858 -31 -859 0
-858 31 859 0
858 -31 859 0
858 31 -859 0
-859 -34 -860 0
-859 34 860 0
859 -34 860 0
859 34 -860 0
-860 -35 -861 0
-860 35 861 0
860 -35 861 0
860 35 -861 0
-861 -38 -862 0
-861 38 862 0
861 -38 862 0
861 38 -862 0
855 862 0
-12 -13 -863 0
-12 13 863 0
12 -13 863 0
12 13 -863 0
-863 -14 -864 0
-863 14 864 0
863 -14 864 0
863 14 -864 0
-864 -15 -865 0
-864 15 865 0
864 -15 865 0
864 15 -865 0
-865 -18 -866 0
-865 18 866 0
865 -18 866 0
865 18 -866 0
-866 -22 -867 0
-866 22 867 0
866 -22 867 0
866 22 -867 0
-867 -23 -868 0
-867 23 868 0
867 -23 868 0
867 23 -868 0
-868 -24 -869 0
-868 24 869 0
868 -24 869 0
868 24 -869 0
-869 -25 -870 0
-869 25 870 0
869 -25 870 0
869 25 -870 0
-870 -28 -871 0
-870 28 871 0
870 -28 871 0
870 28 -871 0
-2 -3 -872 0
-2 3 872 0
2 -3 872 0
2 3 -872 0
-872 -4 -873 0
-872 4 873 0
872 -4 873 0
872 4 -873 0
-873 -5 -874 0
-873 5 874 0
873 -5 874 0
873 5 -874 0
-874 -8 -875 0
-874 8 875 0
874 -8 875 0
874 8 -875 0
-875 -12 -876 0
-875 12 876 0
875 -12 876 0
875 12 -876 0
-876 -13 -877 0
-876 13 877 0
876 -13 877 0
876 13 -877 0
-877 -14 -878 0
-877 14 878 0
877 -14 878 0
877 14 -878 0
-878 -15 -879 0
-878 15 879 0
878 -15 879 0
878 15 -879 0
-879 -18 -880 0
-879 18 880 0
879 -18 880 0
879 18 -880 0
-880 -32 -881 0
-880 32 881 0
880 -32 881 0
880 32 -881 0
-881 -33 -882 0
-881 33 882 0
881 -33 882 0
881 33 -882 0
-882 -34 -883 0
-882 34 883 0
882 -34 883 0
882 34 -883 0
-883 -35 -884 0
-883 35 884 0
883 -35 884 0
883 35 -884 0
-884 -38 -885 0
-884 38 885 0
884 -38 885 0
884 38 -885 0
871 885 0
-1 -2 -886 0
-1 2 886 0
1 -2 886 0
1 2 -886 0
-886 -3 -887 0
-886 3 887 0
886 -3 887 0
886 3 -887 0
-887 -4 -888 0
-887 4 888 0
887 -4 888 0
887 4 -888 0
-888 -6 -889 0
-888 6 889 0
888 -6 889 0
888 6 -889 0
-889 -8 -890 0
-889 8 890 0
889 -8 890 0
889 8 -890 0
-890 -21 -891 0
-890 21 891 0
890 -21 891 0
890 21 -891 0
-891 -22 -892 0
-891 22 892 0
891 -22 892 0
891 22 -892 0
-892 -23 -893 0
-892 23 893 0
892 -23 893 0
892 23 -893 0
-893 -24 -894 0
-893 24 894 0
893 -24 894 0
893 24 -894 0
-894 -26 -895 0
-894 26 895 0
894 -26 895 0
894 26 -895 0
-895 -28 -896 0
-895 28 896 0
895 -28 896 0
895 28 -896 0
-11 -12 -897 0
-11 12 897 0
11 -12 897 0
11 12 -897 0
-897 -13 -898 0
-897 13 898 0
897 -13 898 0
897 13 -898 0
-898 -14 -899 0
-898 14 899 0
898 -14 899 0
898 14 -899 0
-899 -16 -900 0
-899 16 900 0
899 -16 900 0
899 16 -900 0
-900 -18 -901 0
-900 18 901 0
900 -18 901 0
900 18 -901 0
-901 -31 -902 0
-901 31 902 0
901 -31 902 0
901 31 -902 0
-902 -32 -903 0
-902 32 903 0
902 -32 903 0
902 32 -903 0
-903 -33 -904 0
-903 33 904 0
903 -33 904 0
903 33 -904 0
-904 -34 -905 0
-904 34 905 0
904 -34 905 0
904 34 -905 0
-905 -36 -906 0
-905 36 906 0
905 -36 906 0
905 36 -906 0
-906 -38 -907 0
-906 38 907 0
906 -38 907 0
906 38 -907 0
896 907 0
-2 -4 -908 0
-2 4 908 0
2 -4 908 0
2 4 -908 0
-908 -5 -909 0
-908 5 909 0
908 -5 909 0
908 5 -909 0
-909 -7 -910 0
-909 7 910 0
909 -7 910 0
909 7 -910 0
-910 -8 -911 0
-910 8 911 0
910 -8 911 0
910 8 -911 0
-911 -22 -912 0
-911 22 912 0
911 -22 912 0
911 22 -912 0
-912 -24 -913 0
-912 24 913 0
912 -24 913 0
912 24 -913 0
-913 -25 -914 0
-913 25 914 0
913 -25 914 0
913 25 -914 0
-914 -27 -915 0
-914 27 915 0
914 -27 915 0
914 27 -915 0
-915 -28 -916 0
-915 28 916 0
915 -28 916 0
915 28 -916 0
-2 -4 -917 0
-2 4 917 0
2 -4 917 0
2 4 -917 0
-917 -5 -918 0
-917 5 918 0
917 -5 918 0
917 5 -918 0
-918 -7 -919 0
-918 7 919 0
918 -7 919 0
918 7 -919 0
-919 -8 -920 0
-919 8 920 0
919 -8 920 0
919 8 -920 0
-920 -12 -921 0
-920 12 921 0
920 -12 921 0
920 12 -921 0
-921 -14 -922 0
-921 14 922 0
921 -14 922 0
921 14 -922 0
-922 -15 -923 0
-922 15 923 0
922 -15 923 0
922 15 -923 0
-923 -17 -924 0
-923 17 924 0
923 -17 924 0
923 17 -924 0
-924 -18 -925 0
-924 18 925 0
924 -18 925 0
924 18 -925 0
-925 -32 -926 0
-925 32 926 0
925 -32 926 0
925 32 -926 0
-926 -34 -927 0
-926 34 927 0
926 -34 927 0
926 34 -927 0
-927 -35 -928 0
-927 35 928 0
927 -35 928 0
927 35 -928 0
-928 -37 -929 0
-928 37 929 0
928 -37 929 0
928 37 -929 0
-929 -38 -930 0
-929 38 930 0
929 -38 930 0
929 38 -930 0
916 930 0
-11 -12 -931 0
-11 12 931 0
11 -12 931 0
11 12 -931 0
-931 -13 -932 0
-931 13 932 0
931 -13 932 0
931 13 -932 0
-932 -14 -933 0
-932 14 933 0
932 -14 933 0
932 14 -933 0
-933 -16 -934 0
-933 16 934 0
933 -16 934 0
933 16 -934 0
-934 -17 -935 0
-934 17 935 0
934 -17 935 0
934 17 -935 0
-935 -18 -936 0
-935 18 936 0
935 -18 936 0
935 18 -936 0
-936 -21 -937 0
-936 21 937 0
936 -21 937 0
936 21 -937 0
-937 -22 -938 0
-937 22 938 0
937 -22 938 0
937 22 -938 0
-938 -23 -939 0
-938 23 939 0
938 -23 939 0
938 23 -939 0
-939 -24 -940 0
-939 24 940 0
939 -24 940 0
939 24 -940 0
-940 -26 -941 0
-940 26 941 0
940 -26 941 0
940 26 -941 0
-941 -27 -942 0
-941 27 942 0
941 -27 942 0
941 27 -942 0
-942 -28 -943 0
-942 28 943 0
942 -28 943 0
942 28 -943 0
-11 -12 -944 0
-11 12 944 0
11 -12 944 0
11 12 -944 0
-944 -13 -945 0
-944 13 945 0
944 -13 945 0
944 13 -945 0
-945 -14 -946 0
-945 14 946 0
945 -14 946 0
945 14 -946 0
-946 -16 -947 0
-946 16 947 0
946 -16 947 0
946 16 -947 0
-947 -17 -948 0
-947 17 948 0
947 -17 948 0
947 17 -948 0
-948 -18 -949 0
-948 18 949 0
948 -18 949 0
948 18 -949 0
-949 -31 -950 0
-949 31 950 0
949 -31 950 0
949 31 -950 0
-950 -32 -951 0
-950 32 951 0
950 -32 951 0
950 32 -951 0
-951 -33 -952 0
-951 33 952 0
951 -33 952 0
951 33 -952 0
-952 -34 -953 0
-952 34 953 0
952 -34 953 0
952 34 -953 0
-953 -36 -954 0
-953 36 954 0
953 -36 954 0
953 36 -954 0
-954 -37 -955 0
-954 37 955 0
954 -37 955 0
954 37 -955 0
-955 -38 -956 0
-955 38 956 0
955 -38 956 0
955 38 -956 0
943 956 0
-9 -19 -957 0
-9 19 957 0
9 -19 957 0
9 19 -957 0
-957 -29 -958 0
-957 29 958 0
957 -29 958 0
957 29 -958 0
-9 -39 -959 0
-9 39 959 0
9 -39 959 0
9 39 -959 0
958 959 0
-1 -2 -960 0
-1 2 960 0
1 -2 960 0
1 2 -960 0
-960 -3 -961 0
-960 3 961 0
960 -3 961 0
960 3 -961 0
-961 -9 -962 0
-961 9 962 0
961 -9 962 0
961 9 -962 0
-962 -21 -963 0
-962 21 963 0
962 -21 963 0
962 21 -963 0
-963 -22 -964 0
-963 22 964 0
963 -22 964 0
963 22 -964 0
-964 -23 -965 0
-964 23 965 0
964 -23 965 0
964 23 -965 0
-965 -29 -966 0
-965 29 966 0
965 -29 966 0
965 29 -966 0
-1 -2 -967 0
-1 2 967 0
1 -2 967 0
1 2 -967 0
-967 -3 -968 0
-967 3 968 0
967 -3 968 0
967 3 -968 0
-968 -9 -969 0
-968 9 969 0
968 -9 969 0
968 9 -969 0
-969 -11 -970 0
-969 11 970 0
969 -11 970 0
969 11 -970 0
-970 -12 -971 0
-970 12 971 0
970 -12 971 0
970 12 -971 0
-971 -13 -972 0
-971 13 972 0
971 -13 972 0
971 13 -972 0
-972 -19 -973 0
-972 19 973 0
972 -19 973 0
972 19 -973 0
-973 -31 -974 0
-973 31 974 0
973 -31 974 0
973 31 -974 0
-974 -32 -975 0
-974 32 975 0
974 -32 975 0
974 32 -975 0
-975 -33 -976 0
-975 33 976 0
975 -33 976 0
975 33 -976 0
-976 -39 -977 0
-976 39 977 0
976 -39 977 0
976 39 -977 0
966 977 0
-11 -12 -978 0
-11 12 978 0
11 -12 978 0
11 12 -978 0
-978 -13 -979 0
-978 13 979 0
978 -13 979 0
978 13 -979 0
-979 -14 -980 0
-979 14 980 0
979 -14 980 0
979 14 -980 0
-980 -19 -981 0
-980 19 981 0
980 -19 981 0
980 19 -981 0
-981 -21 -982 0
-981 21 982 0
981 -21 982 0
981 21 -982 0
-982 -22 -983 0
-982 22 983 0
982 -22 983 0
982 22 -983 0
-983 -23 -984 0
-983 23 984 0
983 -23 984 0
983 23 -984 0
-984 -24 -985 0
-984 24 985 0
984 -24 985 0
984 24 -985 0
-985 -29 -986 0
-985 29 986 0
985 -29 986 0
985 29 -986 0
-1 -2 -987 0
-1 2 987 0
1 -2 987 0
1 2 -987 0
-987 -3 -988 0
-987 3 988 0
987 -3 988 0
987 3 -988 0
-988 -4 -989 0
-988 4 989 0
988 -4 989 0
988 4 -989 0
-989 -9 -990 0
-989 9 990 0
989 -9 990 0
989 9 -990 0
-990 -31 -991 0
-990 31 991 0
990 -31 991 0
990 31 -991 0
-991 -32 -992 0
-991 32 992 0
991 -32 992 0
991 32 -992 0
-992 -33 -993 0
-992 33 993 0
992 -33 993 0
992 33 -993 0
-993 -34 -994 0
-993 34 994 0
993 -34 994 0
993 34 -994 0
-994 -39 -995 0
-994 39 995 0
994 -39 995 0
994 39 -995 0
986 995 0
-6 -9 -996 0
-6 9 996 0
6 -9 996 0
6 9 -996 0
-996 -26 -997 0
-996 26 997 0
996 -26 997 0
996 26 -997 0
-997 -29 -998 0
-997 29 998 0
997 -29 998 0
997 29 -998 0
-36 -39 -999 0
-36 39 999 0
36 -39 999 0
36 39 -999 0
998 999 0
-21 -24 -1000 0
-21 24 1000 0
21 -24 1000 0
21 24 -1000 0
-1000 -26 -1001 0
-1000 26 1001 0
1000 -26 1001 0
1000 26 -1001 0
-1001 -29 -1002 0
-1001 29 1002 0
1001 -29 1002 0
1001 29 -1002 0
-1 -4 -1003 0
-1 4 1003 0
1 -4 1003 0
1 4 -1003 0
-1003 -6 -1004 0
-1003 6 1004 0
1003 -6 1004 0
1003 6 -1004 0
-1004 -9 -1005 0
-1004 9 1005 0
1004 -9 1005 0
1004 9 -1005 0
-1005 -31 -1006 0
-1005 31 1006 0
1005 -31 1006 0
1005 31 -1006 0
-1006 -34 -1007 0
-1006 34 1007 0
1006 -34 1007 0
1006 34 -1007 0
-1007 -36 -1008 0
-1007 36 1008 0
1007 -36 1008 0
1007 36 -1008 0
-1008 -39 -1009 0
-1008 39 1009 0
1008 -39 1009 0
1008 39 -1009 0
1002 1009 0
-1 -2 -1010 0
-1 2 1010 0
1 -2 1010 0
1 2 -1010 0
-1010 -5 -1011 0
-1010 5 1011 0
1010 -5 1011 0
1010 5 -1011 0
-1011 -6 -1012 0
-1011 6 1012 0
1011 -6 1012 0
1011 6 -1012 0
-1012 -9 -1013 0
-1012 9 1013 0
1012 -9 1013 0
1012 9 -1013 0
-1013 -11 -1014 0
-1013 11 1014 0
1013 -11 1014 0
1013 11 -1014 0
-1014 -12 -1015 0
-1014 12 1015 0
1014 -12 1015 0
1014 12 -1015 0
-1015 -15 -1016 0
-1015 15 1016 0
1015 -15 1016 0
1015 15 -1016 0
-1016 -16 -1017 0
-1016 16 1017 0
1016 -16 1017 0
1016 16 -1017 0
-1017 -19 -1018 0
-1017 19 1018 0
1017 -19 1018 0
1017 19 -1018 0
-1018 -21 -1019 0
-1018 21 1019 0
1018 -21 1019 0
1018 21 -1019 0
-1019 -22 -1020 0
-1019 22 1020 0
1019 -22 1020 0
1019 22 -1020 0
-1020 -25 -1021 0
-1020 25 1021 0
1020 -25 1021 0
1020 25 -1021 0
-1021 -26 -1022 0
-1021 26 1022 0
1021 -26 1022 0
1021 26 -1022 0
-1022 -29 -1023 0
-1022 29 1023 0
1022 -29 1023 0
1022 29 -1023 0
-31 -32 -1024 0
-31 32 1024 0
31 -32 1024 0
31 32 -1024 0
-1024 -35 -1025 0
-1024 35 1025 0
1024 -35 1025 0
1024 35 -1025 0
-1025 -36 -1026 0
-1025 36 1026 0
1025 -36 1026 0
1025 36 -1026 0
-1026 -39 -1027 0
-1026 39 1027 0
1026 -39 1027 0
1026 39 -1027 0
1023 1027 0
-22 -24 -1028 0
-22 24 1028 0
22 -24 1028 0
22 24 -1028 0
-1028 -25 -1029 0
-1028 25 1029 0
1028 -25 1029 0
1028 25 -1029 0
-1029 -26 -1030 0
-1029 26 1030 0
1029 -26 1030 0
1029 26 -1030 0
-1030 -29 -1031 0
-1030 29 1031 0
1030 -29 1031 0
1030 29 -1031 0
-2 -4 -1032 0
-2 4 1032 0
2 -4 1032 0
2 4 -1032 0
-1032 -5 -1033 0
-1032 5 1033 0
1032 -5 1033 0
1032 5 -1033 0
-1033 -6 -1034 0
-1033 6 1034 0
1033 -6 1034 0
1033 6 -1034 0
-1034 -9 -1035 0
-1034 9 1035 0
1034 -9 1035 0
1034 9 -1035 0
-1035 -12 -1036 0
-1035 12 1036 0
1035 -12 1036 0
1035 12 -1036 0
-1036 -14 -1037 0
-1036 14 1037 0
1036 -14 1037 0
1036 14 -1037 0
-1037 -15 -1038 0
-1037 15 1038 0
1037 -15 1038 0
1037 15 -1038 0
-1038 -16 -1039 0
-1038 16 1039 0
1038 -16 1039 0
1038 16 -1039 0
-1039 -19 -1040 0
-1039 19 1040 0
1039 -19 1040 0
1039 19 -1040 0
-1040 -32 -1041 0
-1040 32 1041 0
1040 -32 1041 0
1040 32 -1041 0
-1041 -34 -1042 0
-1041 34 1042 0
1041 -34 1042 0
1041 34 -1042 0
-1042 -35 -1043 0
-1042 35 1043 0
1042 -35 1043 0
1042 35 -1043 0
-1043 -36 -1044 0
-1043 36 1044 0
1043 -36 1044 0
1043 36 -1044 0
-1044 -39 -1045 0
-1044 39 1045 0
1044 -39 1045 0
1044 39 -1045 0
1031 1045 0
-2 -3 -1046 0
-2 3 1046 0
2 -3 1046 0
2 3 -1046 0
-1046 -5 -1047 0
-1046 5 1047 0
1046 -5 1047 0
1046 5 -1047 0
-1047 -7 -1048 0
-1047 7 1048 0
1047 -7 1048 0
1047 7 -1048 0
-1048 -9 -1049 0
-1048 9 1049 0
1048 -9 1049 0
1048 9 -1049 0
-1049 -12 -1050 0
-1049 12 1050 0
1049 -12 1050 0
1049 12 -1050 0
-1050 -13 -1051 0
-1050 13 1051 0
1050 -13 1051 0
1050 13 -1051 0
-1051 -15 -1052 0
-1051 15 1052 0
1051 -15 1052 0
1051 15 -1052 0
-1052 -17 -1053 0
-1052 17 1053 0
1052 -17 1053 0
1052 17 -1053 0
-1053 -19 -1054 0
-1053 19 1054 0
1053 -19 1054 0
1053 19 -1054 0
-1054 -22 -1055 0
-1054 22 1055 0
1054 -22 1055 0
1054 22 -1055 0
-1055 -23 -1056 0
-1055 23 1056 0
1055 -23 1056 0
1055 23 -1056 0
-1056 -25 -1057 0
-1056 25 1057 0
1056 -25 1057 0
1056 25 -1057 0
-1057 -27 -1058 0
-1057 27 1058 0
1057 -27 1058 0
1057 27 -1058 0
-1058 -29 -1059 0
-1058 29 1059 0
1058 -29 1059 0
1058 29 -1059 0
-32 -33 -1060 0
-32 33 1060 0
32 -33 1060 0
32 33 -1060 0
-1060 -35 -1061 0
-1060 35 1061 0
1060 -35 1061 0
1060 35 -1061 0
-1061 -37 -1062 0
-1061 37 1062 0
1061 -37 1062 0
1061 37 -1062 0
-1062 -39 -1063 0
-1062 39 1063 0
1062 -39 1063 0
1062 39 -1063 0
1059 1063 0
-1 -2 -1064 0
-1 2 1064 0
1 -2 1064 0
1 2 -1064 0
-1064 -3 -1065 0
-1064 3 1065 0
1064 -3 1065 0
1064 3 -1065 0
-1065 -5 -1066 0
-1065 5 1066 0
1065 -5 1066 0
1065 5 -1066 0
-1066 -6 -1067 0
-1066 6 1067 0
1066 -6 1067 0
1066 6 -1067 0
-1067 -7 -1068 0
-1067 7 1068 0
1067 -7 1068 0
1067 7 -1068 0
-1068 -9 -1069 0
-1068 9 1069 0
1068 -9 1069 0
1068 9 -1069 0
-1069 -21 -1070 0
-1069 21 1070 0
1069 -21 1070 0
1069 21 -1070 0
-1070 -22 -1071 0
-1070 22 1071 0
1070 -22 1071 0
1070 22 -1071 0
-1071 -23 -1072 0
-1071 23 1072 0
1071 -23 1072 0
1071 23 -1072 0
-1072 -25 -1073 0
-1072 25 1073 0
1072 -25 1073 0
1072 25 -1073 0
-1073 -26 -1074 0
-1073 26 1074 0
1073 -26 1074 0
1073 26 -1074 0
-1074 -27 -1075 0
-1074 27 1075 0
1074 -27 1075 0
1074 27 -1075 0
-1075 -29 -1076 0
-1075 29 1076 0
1075 -29 1076 0
1075 29 -1076 0
-31 -32 -1077 0
-31 32 1077 0
31 -32 1077 0
31 32 -1077 0
-1077 -33 -1078 0
-1077 33 1078 0
1077 -33 1078 0
1077 33 -1078 0
-1078 -35 -1079 0
-1078 35 1079 0
1078 -35 1079 0
1078 35 -1079 0
-1079 -36 -1080 0
-1079 36 1080 0
1079 -36 1080 0
1079 36 -1080 0
-1080 -37 -1081 0
-1080 37 1081 0
1080 -37 1081 0
1080 37 -1081 0
-1081 -39 -1082 0
-1081 39 1082 0
1081 -39 1082 0
1081 39 -1082 0
1076 1082 0
-12 -13 -1083 0
-12 13 1083 0
12 -13 1083 0
12 13 -1083 0
-1083 -14 -1084 0
-1083 14 1084 0
1083 -14 1084 0
1083 14 -1084 0
-1084 -15 -1085 0
-1084 15 1085 0
1084 -15 1085 0
1084 15 -1085 0
-1085 -16 -1086 0
-1085 16 1086 0
1085 -16 1086 0
1085 16 -1086 0
-1086 -17 -1087 0
-1086 17 1087 0
1086 -17 1087 0
1086 17 -1087 0
-1087 -19 -1088 0
-1087 19 1088 0
1087 -19 1088 0
1087 19 -1088 0
-1088 -22 -1089 0
-1088 22 1089 0
1088 -22 1089 0
1088 22 -1089 0
-1089 -23 -1090 0
-1089 23 1090 0
1089 -23 1090 0
1089 23 -1090 0
-1090 -24 -1091 0
-1090 24 1091 0
1090 -24 1091 0
1090 24 -1091 0
-1091 -25 -1092 0
-1091 25 1092 0
1091 -25 1092 0
1091 25 -1092 0
-1092 -26 -1093 0
-1092 26 1093 0
1092 -26 1093 0
1092 26 -1093 0
-1093 -27 -1094 0
-1093 27 1094 0
1093 -27 1094 0
1093 27 -1094 0
-1094 -29 -1095 0
-1094 29 1095 0
1094 -29 1095 0
1094 29 -1095 0
-2 -3 -1096 0
-2 3 1096 0
2 -3 1096 0
2 3 -1096 0
-1096 -4 -1097 0
-1096 4 1097 0
1096 -4 1097 0
1096 4 -1097 0
-1097 -5 -1098 0
-1097 5 1098 0
1097 -5 1098 0
1097 5 -1098 0
-1098 -6 -1099 0
-1098 6 1099 0
1098 -6 1099 0
1098 6 -1099 0
-1099 -7 -1100 0
-1099 7 1100 0
1099 -7 1100 0
1099 7 -1100 0
-1100 -9 -1101 0
-1100 9 1101 0
1100 -9 1101 0
1100 9 -1101 0
-1101 -12 -1102 0
-1101 12 1102 0
1101 -12 1102 0
1101 12 -1102 0
-1102 -13 -1103 0
-1102 13 1103 0
1102 -13 1103 0
1102 13 -1103 0
-1103 -14 -1104 0
-1103 14 1104 0
1103 -14 1104 0
1103 14 -1104 0
-1104 -15 -1105 0
-1104 15 1105 0
1104 -15 1105 0
1104 15 -1105 0
-1105 -16 -1106 0
-1105 16 1106 0
1105 -16 1106 0
1105 16 -1106 0
-1106 -17 -1107 0
-1106 17 1107 0
1106 -17 1107 0
1106 17 -1107 0
-1107 -19 -1108 0
-1107 19 1108 0
1107 -19 1108 0
1107 19 -1108 0
-1108 -32 -1109 0
-1108 32 1109 0
1108 -32 1109 0
1108 32 -1109 0
-1109 -33 -1110 0
-1109 33 1110 0
1109 -33 1110 0
1109 33 -1110 0
-1110 -34 -1111 0
-1110 34 1111 0
1110 -34 1111 0
1110 34 -1111 0
-1111 -35 -1112 0
-1111 35 1112 0
1111 -35 1112 0
1111 35 -1112 0
-1112 -36 -1113 0
-1112 36 1113 0
1112 -36 1113 0
1112 36 -1113 0
-1113 -37 -1114 0
-1113 37 1114 0
1113 -37 1114 0
1113 37 -1114 0
-1114 -39 -1115 0
-1114 39 1115 0
1114 -39 1115 0
1114 39 -1115 0
1095 1115 0
-25 -26 -1116 0
-25 26 1116 0
25 -26 1116 0
25 26 -1116 0
-1116 -28 -1117 0
-1116 28 1117 0
1116 -28 1117 0
1116 28 -1117 0
-1117 -29 -1118 0
-1117 29 1118 0
1117 -29 1118 0
1117 29 -1118 0
-5 -6 -1119 0
-5 6 1119 0
5 -6 1119 0
5 6 -1119 0
-1119 -8 -1120 0
-1119 8 1120 0
1119 -8 1120 0
1119 8 -1120 0
-1120 -9 -1121 0
-1120 9 1121 0
1120 -9 1121 0
1120 9 -1121 0
-1121 -35 -1122 0
-1121 35 1122 0
1121 -35 1122 0
1121 35 -1122 0
-1122 -36 -1123 0
-1122 36 1123 0
1122 -36 1123 0
1122 36 -1123 0
-1123 -38 -1124 0
-1123 38 1124 0
1123 -38 1124 0
1123 38 -1124 0
-1124 -39 -1125 0
-1124 39 1125 0
1124 -39 1125 0
1124 39 -1125 0
1118 1125 0
-21 -25 -1126 0
-21 25 1126 0
21 -25 1126 0
21 25 -1126 0
-1126 -26 -1127 0
-1126 26 1127 0
1126 -26 1127 0
1126 26 -1127 0
-1127 -28 -1128 0
-1127 28 1128 0
1127 -28 1128 0
1127 28 -1128 0
-1128 -29 -1129 0
-1128 29 1129 0
1128 -29 1129 0
1128 29 -1129 0
-11 -15 -1130 0
-11 15 1130 0
11 -15 1130 0
11 15 -1130 0
-1130 -16 -1131 0
-1130 16 1131 0
1130 -16 1131 0
1130 16 -1131 0
-1131 -18 -1132 0
-1131 18 1132 0
1131 -18 1132 0
1131 18 -1132 0
-1132 -19 -1133 0
-1132 19 1133 0
1132 -19 1133 0
1132 19 -1133 0
-1133 -31 -1134 0
-1133 31 1134 0
1133 -31 1134 0
1133 31 -1134 0
-1134 -35 -1135 0
-1134 35 1135 0
1134 -35 1135 0
1134 35 -1135 0
-1135 -36 -1136 0
-1135 36 1136 0
1135 -36 1136 0
1135 36 -1136 0
-1136 -38 -1137 0
-1136 38 1137 0
1136 -38 1137 0
1136 38 -1137 0
-1137 -39 -1138 0
-1137 39 1138 0
1137 -39 1138 0
1137 39 -1138 0
1129 1138 0
-2 -3 -1139 0
-2 3 1139 0
2 -3 1139 0
2 3 -1139 0
-1139 -4 -1140 0
-1139 4 1140 0
1139 -4 1140 0
1139 4 -1140 0
-1140 -5 -1141 0
-1140 5 1141 0
1140 -5 1141 0
1140 5 -1141 0
-1141 -6 -1142 0
-1141 6 1142 0
1141 -6 1142 0
1141 6 -1142 0
-1142 -8 -1143 0
-1142 8 1143 0
1142 -8 1143 0
1142 8 -1143 0
-1143 -9 -1144 0
-1143 9 1144 0
1143 -9 1144 0
1143 9 -1144 0
-1144 -12 -1145 0
-1144 12 1145 0
1144 -12 1145 0
1144 12 -1145 0
-1145 -13 -1146 0
-1145 13 1146 0
1145 -13 1146 0
1145 13 -1146 0
-1146 -14 -1147 0
-1146 14 1147 0
1146 -14 1147 0
1146 14 -1147 0
-1147 -15 -1148 0
-1147 15 1148 0
1147 -15 1148 0
1147 15 -1148 0
-1148 -16 -1149 0
-1148 16 1149 0
1148 -16 1149 0
1148 16 -1149 0
-1149 -18 -1150 0
-1149 18 1150 0
1149 -18 1150 0
1149 18 -1150 0
-1150 -19 -1151 0
-1150 19 1151 0
1150 -19 1151 0
1150 19 -1151 0
-1151 -22 -1152 0
-1151 22 1152 0
1151 -22 1152 0
1151 22 -1152 0
-1152 -23 -1153 0
-1152 23 1153 0
1152 -23 1153 0
1152 23 -1153 0
-1153 -24 -1154 0
-1153 24 1154 0
1153 -24 1154 0
1153 24 -1154 0
-1154 -25 -1155 0
-1154 25 1155 0
1154 -25 1155 0
1154 25 -1155 0
-1155 -26 -1156 0
-1155 26 1156 0
1155 -26 1156 0
1155 26 -1156 0
-1156 -28 -1157 0
-1156 28 1157 0
1156 -28 1157 0
1156 28 -1157 0
-1157 -29 -1158 0
-1157 29 1158 0
1157 -29 1158 0
1157 29 -1158 0
-12 -13 -1159 0
-12 13 1159 0
12 -13 1159 0
12 13 -1159 0
-1159 -14 -1160 0
-1159 14 1160 0
1159 -14 1160 0
1159 14 -1160 0
-1160 -15 -1161 0
-1160 15 1161 0
1160 -15 1161 0
1160 15 -1161 0
-1161 -16 -1162 0
-1161 16 1162 0
1161 -16 1162 0
1161 16 -1162 0
-1162 -18 -1163 0
-1162 18 1163 0
1162 -18 1163 0
1162 18 -1163 0
-1163 -19 -1164 0
-1163 19 1164 0
1163 -19 1164 0
1163 19 -1164 0
-1164 -32 -1165 0
-1164 32 1165 0
1164 -32 1165 0
1164 32 -1165 0
-1165 -33 -1166 0
-1165 33 1166 0
1165 -33 1166 0
1165 33 -1166 0
-1166 -34 -1167 0
-1166 34 1167 0
1166 -34 1167 0
1166 34 -1167 0
-1167 -35 -1168 0
-1167 35 1168 0
1167 -35 1168 0
1167 35 -1168 0
-1168 -36 -1169 0
-1168 36 1169 0
1168 -36 1169 0
1168 36 -1169 0
-1169 -38 -1170 0
-1169 38 1170 0
1169 -38 1170 0
1169 38 -1170 0
-1170 -39 -1171 0
-1170 39 1171 0
1170 -39 1171 0
1170 39 -1171 0
1158 1171 0
-1 -3 -1172 0
-1 3 1172 0
1 -3 1172 0
1 3 -1172 0
-1172 -4 -1173 0
-1172 4 1173 0
1172 -4 1173 0
1172 4 -1173 0
-1173 -5 -1174 0
-1173 5 1174 0
1173 -5 1174 0
1173 5 -1174 0
-1174 -7 -1175 0
-1174 7 1175 0
1174 -7 1175 0
1174 7 -1175 0
-1175 -8 -1176 0
-1175 8 1176 0
1175 -8 1176 0
1175 8 -1176 0
-1176 -9 -1177 0
-1176 9 1177 0
1176 -9 1177 0
1176 9 -1177 0
-1177 -21 -1178 0
-1177 21 1178 0
1177 -21 1178 0
1177 21 -1178 0
-1178 -23 -1179 0
-1178 23 1179 0
1178 -23 1179 0
1178 23 -1179 0
-1179 -24 -1180 0
-1179 24 1180 0
1179 -24 1180 0
1179 24 -1180 0
-1180 -25 -1181 0
-1180 25 1181 0
1180 -25 1181 0
1180 25 -1181 0
-1181 -27 -1182 0
-1181 27 1182 0
1181 -27 1182 0
1181 27 -1182 0
-1182 -28 -1183 0
-1182 28 1183 0
1182 -28 1183 0
1182 28 -1183 0
-1183 -29 -1184 0
-1183 29 1184 0
1183 -29 1184 0
1183 29 -1184 0
-1 -3 -1185 0
-1 3 1185 0
1 -3 1185 0
1 3 -1185 0
-1185 -4 -1186 0
-1185 4 1186 0
1185 -4 1186 0
1185 4 -1186 0
-1186 -5 -1187 0
-1186 5 1187 0
1186 -5 1187 0
1186 5 -1187 0
-1187 -7 -1188 0
-1187 7 1188 0
1187 -7 1188 0
1187 7 -1188 0
-1188 -8 -1189 0
-1188 8 1189 0
1188 -8 1189 0
1188 8 -1189 0
-1189 -9 -1190 0
-1189 9 1190 0
1189 -9 1190 0
1189 9 -1190 0
-1190 -11 -1191 0
-1190 11 1191 0
1190 -11 1191 0
1190 11 -1191 0
-1191 -13 -1192 0
-1191 13 1192 0
1191 -13 1192 0
1191 13 -1192 0
-1192 -14 -1193 0
-1192 14 1193 0
1192 -14 1193 0
1192 14 -1193 0
-1193 -15 -1194 0
-1193 15 1194 0
1193 -15 1194 0
1193 15 -1194 0
-1194 -17 -1195 0
-1194 17 1195 0
1194 -17 1195 0
1194 17 -1195 0
-1195 -18 -1196 0
-1195 18 1196 0
1195 -18 1196 0
1195 18 -1196 0
-1196 -19 -1197 0
-1196 19 1197 0
1196 -19 1197 0
1196 19 -1197 0
-1197 -31 -1198 0
-1197 31 1198 0
1197 -31 1198 0
1197 31 -1198 0
-1198 -33 -1199 0
-1198 33 1199 0
1198 -33 1199 0
1198 33 -1199 0
-1199 -34 -1200 0
-1199 34 1200 0
1199 -34 1200 0
1199 34 -1200 0
-1200 -35 -1201 0
-1200 35 1201 0
1200 -35 1201 0
1200 35 -1201 0
-1201 -37 -1202 0
-1201 37 1202 0
1201 -37 1202 0
1201 37 -1202 0
-1202 -38 -1203 0
-1202 38 1203 0
1202 -38 1203 0
1202 38 -1203 0
-1203 -39 -1204 0
-1203 39 1204 0
1203 -39 1204 0
1203 39 -1204 0
1184 1204 0
-16 -17 -1205 0
-16 17 1205 0
16 -17 1205 0
16 17 -1205 0
-1205 -18 -1206 0
-1205 18 1206 0
1205 -18 1206 0
1205 18 -1206 0
-1206 -19 -1207 0
-1206 19 1207 0
1206 -19 1207 0
1206 19 -1207 0
-1207 -26 -1208 0
-1207 26 1208 0
1207 -26 1208 0
1207 26 -1208 0
-1208 -27 -1209 0
-1208 27 1209 0
1208 -27 1209 0
1208 27 -1209 0
-1209 -28 -1210 0
-1209 28 1210 0
1209 -28 1210 0
1209 28 -1210 0
-1210 -29 -1211 0
-1210 29 1211 0
1210 -29 1211 0
1210 29 -1211 0
-6 -7 -1212 0
-6 7 1212 0
6 -7 1212 0
6 7 -1212 0
-1212 -8 -1213 0
-1212 8 1213 0
1212 -8 1213 0
1212 8 -1213 0
-1213 -9 -1214 0
-1213 9 1214 0
1213 -9 1214 0
1213 9 -1214 0
-1214 -16 -1215 0
-1214 16 1215 0
1214 -16 1215 0
1214 16 -1215 0
-1215 -17 -1216 0
-1215 17 1216 0
1215 -17 1216 0
1215 17 -1216 0
-1216 -18 -1217 0
-1216 18 1217 0
1216 -18 1217 0
1216 18 -1217 0
-1217 -19 -1218 0
-1217 19 1218 0
1217 -19 1218 0
1217 19 -1218 0
-1218 -36 -1219 0
-1218 36 1219 0
1218 -36 1219 0
1218 36 -1219 0
-1219 -37 -1220 0
-1219 37 1220 0
1219 -37 1220 0
1219 37 -1220 0
-1220 -38 -1221 0
-1220 38 1221 0
1220 -38 1221 0
1220 38 -1221 0
-1221 -39 -1222 0
-1221 39 1222 0
1221 -39 1222 0
1221 39 -1222 0
1211 1222 0
-1223 30 0
1223 -30 0
-10 -20 -1224 0
-10 20 1224 0
10 -20 1224 0
10 20 -1224 0
-1224 -40 -1225 0
-1224 40 1225 0
1224 -40 1225 0
1224 40 -1225 0
1223 1225 0
-2 -10 -1226 0
-2 10 1226 0
2 -10 1226 0
2 10 -1226 0
-1226 -22 -1227 0
-1226 22 1227 0
1226 -22 1227 0
1226 22 -1227 0
-1227 -30 -1228 0
-1227 30 1228 0
1227 -30 1228 0
1227 30 -1228 0
-32 -40 -1229 0
-32 40 1229 0
32 -40 1229 0
32 40 -1229 0
1228 1229 0
-1 -2 -1230 0
-1 2 1230 0
1 -2 1230 0
1 2 -1230 0
-1230 -4 -1231 0
-1230 4 1231 0
1230 -4 1231 0
1230 4 -1231 0
-1231 -10 -1232 0
-1231 10 1232 0
1231 -10 1232 0
1231 10 -1232 0
-1232 -11 -1233 0
-1232 11 1233 0
1232 -11 1233 0
1232 11 -1233 0
-1233 -12 -1234 0
-1233 12 1234 0
1233 -12 1234 0
1233 12 -1234 0
-1234 -14 -1235 0
-1234 14 1235 0
1234 -14 1235 0
1234 14 -1235 0
-1235 -20 -1236 0
-1235 20 1236 0
1235 -20 1236 0
1235 20 -1236 0
-1236 -21 -1237 0
-1236 21 1237 0
1236 -21 1237 0
1236 21 -1237 0
-1237 -22 -1238 0
-1237 22 1238 0
1237 -22 1238 0
1237 22 -1238 0
-1238 -24 -1239 0
-1238 24 1239 0
1238 -24 1239 0
1238 24 -1239 0
-1239 -30 -1240 0
-1239 30 1240 0
1239 -30 1240 0
1239 30 -1240 0
-11 -12 -1241 0
-11 12 1241 0
11 -12 1241 0
11 12 -1241 0
-1241 -14 -1242 0
-1241 14 1242 0
1241 -14 1242 0
1241 14 -1242 0
-1242 -20 -1243 0
-1242 20 1243 0
1242 -20 1243 0
1242 20 -1243 0
-1243 -31 -1244 0
-1243 31 1244 0
1243 -31 1244 0
1243 31 -1244 0
-1244 -32 -1245 0
-1244 32 1245 0
1244 -32 1245 0
1244 32 -1245 0
-1245 -34 -1246 0
-1245 34 1246 0
1245 -34 1246 0
1245 34 -1246 0
-1246 -40 -1247 0
-1246 40 1247 0
1246 -40 1247 0
1246 40 -1247 0
1240 1247 0
-5 -7 -1248 0
-5 7 1248 0
5 -7 1248 0
5 7 -1248 0
-1248 -10 -1249 0
-1248 10 1249 0
1248 -10 1249 0
1248 10 -1249 0
-1249 -25 -1250 0
-1249 25 1250 0
1249 -25 1250 0
1249 25 -1250 0
-1250 -27 -1251 0
-1250 27 1251 0
1250 -27 1251 0
1250 27 -1251 0
-1251 -30 -1252 0
-1251 30 1252 0
1251 -30 1252 0
1251 30 -1252 0
-15 -17 -1253 0
-15 17 1253 0
15 -17 1253 0
15 17 -1253 0
-1253 -20 -1254 0
-1253 20 1254 0
1253 -20 1254 0
1253 20 -1254 0
-1254 -35 -1255 0
-1254 35 1255 0
1254 -35 1255 0
1254 35 -1255 0
-1255 -37 -1256 0
-1255 37 1256 0
1255 -37 1256 0
1255 37 -1256 0
-1256 -40 -1257 0
-1256 40 1257 0
1256 -40 1257 0
1256 40 -1257 0
1252 1257 0
-1 -3 -1258 0
-1 3 1258 0
1 -3 1258 0
1 3 -1258 0
-1258 -5 -1259 0
-1258 5 1259 0
1258 -5 1259 0
1258 5 -1259 0
-1259 -7 -1260 0
-1259 7 1260 0
1259 -7 1260 0
1259 7 -1260 0
-1260 -10 -1261 0
-1260 10 1261 0
1260 -10 1261 0
1260 10 -1261 0
-1261 -21 -1262 0
-1261 21 1262 0
1261 -21 1262 0
1261 21 -1262 0
-1262 -23 -1263 0
-1262 23 1263 0
1262 -23 1263 0
1262 23 -1263 0
-1263 -25 -1264 0
-1263 25 1264 0
1263 -25 1264 0
1263 25 -1264 0
-1264 -27 -1265 0
-1264 27 1265 0
1264 -27 1265 0
1264 27 -1265 0
-1265 -30 -1266 0
-1265 30 1266 0
1265 -30 1266 0
1265 30 -1266 0
-31 -33 -1267 0
-31 33 1267 0
31 -33 1267 0
31 33 -1267 0
-1267 -35 -1268 0
-1267 35 1268 0
1267 -35 1268 0
1267 35 -1268 0
-1268 -37 -1269 0
-1268 37 1269 0
1268 -37 1269 0
1268 37 -1269 0
-1269 -40 -1270 0
-1269 40 1270 0
1269 -40 1270 0
1269 40 -1270 0
1266 1270 0
-21 -22 -1271 0
-21 22 1271 0
21 -22 1271 0
21 22 -1271 0
-1271 -24 -1272 0
-1271 24 1272 0
1271 -24 1272 0
1271 24 -1272 0
-1272 -26 -1273 0
-1272 26 1273 0
1272 -26 1273 0
1272 26 -1273 0
-1273 -28 -1274 0
-1273 28 1274 0
1273 -28 1274 0
1273 28 -1274 0
-1274 -30 -1275 0
-1274 30 1275 0
1274 -30 1275 0
1274 30 -1275 0
-11 -12 -1276 0
-11 12 1276 0
11 -12 1276 0
11 12 -1276 0
-1276 -14 -1277 0
-1276 14 1277 0
1276 -14 1277 0
1276 14 -1277 0
-1277 -16 -1278 0
-1277 16 1278 0
1277 -16 1278 0
1277 16 -1278 0
-1278 -18 -1279 0
-1278 18 1279 0
1278 -18 1279 0
1278 18 -1279 0
-1279 -20 -1280 0
-1279 20 1280 0
1279 -20 1280 0
1279 20 -1280 0
-1280 -31 -1281 0
-1280 31 1281 0
1280 -31 1281 0
1280 31 -1281 0
-1281 -32 -1282 0
-1281 32 1282 0
1281 -32 1282 0
1281 32 -1282 0
-1282 -34 -1283 0
-1282 34 1283 0
1282 -34 1283 0
1282 34 -1283 0
-1283 -36 -1284 0
-1283 36 1284 0
1283 -36 1284 0
1283 36 -1284 0
-1284 -38 -1285 0
-1284 38 1285 0
1284 -38 1285 0
1284 38 -1285 0
-1285 -40 -1286 0
-1285 40 1286 0
1285 -40 1286 0
1285 40 -1286 0
1275 1286 0
-5 -7 -1287 0
-5 7 1287 0
5 -7 1287 0
5 7 -1287 0
-1287 -8 -1288 0
-1287 8 1288 0
1287 -8 1288 0
1287 8 -1288 0
-1288 -10 -1289 0
-1288 10 1289 0
1288 -10 1289 0
1288 10 -1289 0
-1289 -15 -1290 0
-1289 15 1290 0
1289 -15 1290 0
1289 15 -1290 0
-1290 -17 -1291 0
-1290 17 1291 0
1290 -17 1291 0
1290 17 -1291 0
-1291 -18 -1292 0
-1291 18 1292 0
1291 -18 1292 0
1291 18 -1292 0
-1292 -20 -1293 0
-1292 20 1293 0
1292 -20 1293 0
1292 20 -1293 0
-1293 -25 -1294 0
-1293 25 1294 0
1293 -25 1294 0
1293 25 -1294 0
-1294 -27 -1295 0
-1294 27 1295 0
1294 -27 1295 0
1294 27 -1295 0
-1295 -28 -1296 0
-1295 28 1296 0
1295 -28 1296 0
1295 28 -1296 0
-1296 -30 -1297 0
-1296 30 1297 0
1296 -30 1297 0
1296 30 -1297 0
-5 -7 -1298 0
-5 7 1298 0
5 -7 1298 0
5 7 -1298 0
-1298 -8 -1299 0
-1298 8 1299 0
1298 -8 1299 0
1298 8 -1299 0
-1299 -10 -1300 0
-1299 10 1300 0
1299 -10 1300 0
1299 10 -1300 0
-1300 -35 -1301 0
-1300 35 1301 0
1300 -35 1301 0
1300 35 -1301 0
-1301 -37 -1302 0
-1301 37 1302 0
1301 -37 1302 0
1301 37 -1302 0
-1302 -38 -1303 0
-1302 38 1303 0
1302 -38 1303 0
1302 38 -1303 0
-1303 -40 -1304 0
-1303 40 1304 0
1303 -40 1304 0
1303 40 -1304 0
1297 1304 0
-12 -13 -1305 0
-12 13 1305 0
12 -13 1305 0
12 13 -1305 0
-1305 -15 -1306 0
-1305 15 1306 0
1305 -15 1306 0
1305 15 -1306 0
-1306 -16 -1307 0
-1306 16 1307 0
1306 -16 1307 0
1306 16 -1307 0
-1307 -17 -1308 0
-1307 17 1308 0
1307 -17 1308 0
1307 17 -1308 0
-1308 -18 -1309 0
-1308 18 1309 0
1308 -18 1309 0
1308 18 -1309 0
-1309 -20 -1310 0
-1309 20 1310 0
1309 -20 1310 0
1309 20 -1310 0
-1310 -22 -1311 0
-1310 22 1311 0
1310 -22 1311 0
1310 22 -1311 0
-1311 -23 -1312 0
-1311 23 1312 0
1311 -23 1312 0
1311 23 -1312 0
-1312 -25 -1313 0
-1312 25 1313 0
1312 -25 1313 0
1312 25 -1313 0
-1313 -26 -1314 0
-1313 26 1314 0
1313 -26 1314 0
1313 26 -1314 0
-1314 -27 -1315 0
-1314 27 1315 0
1314 -27 1315 0
1314 27 -1315 0
-1315 -28 -1316 0
-1315 28 1316 0
1315 -28 1316 0
1315 28 -1316 0
-1316 -30 -1317 0
-1316 30 1317 0
1316 -30 1317 0
1316 30 -1317 0
-2 -3 -1318 0
-2 3 1318 0
2 -3 1318 0
2 3 -1318 0
-1318 -5 -1319 0
-1318 5 1319 0
1318 -5 1319 0
1318 5 -1319 0
-1319 -6 -1320 0
-1319 6 1320 0
1319 -6 1320 0
1319 6 -1320 0
-1320 -7 -1321 0
-1320 7 1321 0
1320 -7 1321 0
1320 7 -1321 0
-1321 -8 -1322 0
-1321 8 1322 0
1321 -8 1322 0
1321 8 -1322 0
-1322 -10 -1323 0
-1322 10 1323 0
1322 -10 1323 0
1322 10 -1323 0
-1323 -32 -1324 0
-1323 32 1324 0
1323 -32 1324 0
1323 32 -1324 0
-1324 -33 -1325 0
-1324 33 1325 0
1324 -33 1325 0
1324 33 -1325 0
-1325 -35 -1326 0
-1325 35 1326 0
1325 -35 1326 0
1325 35 -1326 0
-1326 -36 -1327 0
-1326 36 1327 0
1326 -36 1327 0
1326 36 -1327 0
-1327 -37 -1328 0
-1327 37 1328 0
1327 -37 1328 0
1327 37 -1328 0
-1328 -38 -1329 0
-1328 38 1329 0
1328 -38 1329 0
1328 38 -1329 0
-1329 -40 -1330 0
-1329 40 1330 0
1329 -40 1330 0
1329 40 -1330 0
1317 1330 0
-1 -2 -1331 0
-1 2 1331 0
1 -2 1331 0
1 2 -1331 0
-1331 -3 -1332 0
-1331 3 1332 0
1331 -3 1332 0
1331 3 -1332 0
-1332 -4 -1333 0
-1332 4 1333 0
1332 -4 1333 0
1332 4 -1333 0
-1333 -5 -1334 0
-1333 5 1334 0
1333 -5 1334 0
1333 5 -1334 0
-1334 -6 -1335 0
-1334 6 1335 0
1334 -6 1335 0
1334 6 -1335 0
-1335 -7 -1336 0
-1335 7 1336 0
1335 -7 1336 0
1335 7 -1336 0
-1336 -8 -1337 0
-1336 8 1337 0
1336 -8 1337 0
1336 8 -1337 0
-1337 -10 -1338 0
-1337 10 1338 0
1337 -10 1338 0
1337 10 -1338 0
-1338 -21 -1339 0
-1338 21 1339 0
1338 -21 1339 0
1338 21 -1339 0
-1339 -22 -1340 0
-1339 22 1340 0
1339 -22 1340 0
1339 22 -1340 0
-1340 -23 -1341 0
-1340 23 1341 0
1340 -23 1341 0
1340 23 -1341 0
-1341 -24 -1342 0
-1341 24 1342 0
1341 -24 1342 0
1341 24 -1342 0
-1342 -25 -1343 0
-1342 25 1343 0
1342 -25 1343 0
1342 25 -1343 0
-1343 -26 -1344 0
-1343 26 1344 0
1343 -26 1344 0
1343 26 -1344 0
-1344 -27 -1345 0
-1344 27 1345 0
1344 -27 1345 0
1344 27 -1345 0
-1345 -28 -1346 0
-1345 28 1346 0
1345 -28 1346 0
1345 28 -1346 0
-1346 -30 -1347 0
-1346 30 1347 0
1346 -30 1347 0
1346 30 -1347 0
-11 -12 -1348 0
-11 12 1348 0
11 -12 1348 0
11 12 -1348 0
-1348 -13 -1349 0
-1348 13 1349 0
1348 -13 1349 0
1348 13 -1349 0
-1349 -14 -1350 0
-1349 14 1350 0
1349 -14 1350 0
1349 14 -1350 0
-1350 -15 -1351 0
-1350 15 1351 0
1350 -15 1351 0
1350 15 -1351 0
-1351 -16 -1352 0
-1351 16 1352 0
1351 -16 1352 0
1351 16 -1352 0
-1352 -17 -1353 0
-1352 17 1353 0
1352 -17 1353 0
1352 17 -1353 0
-1353 -18 -1354 0
-1353 18 1354 0
1353 -18 1354 0
1353 18 -1354 0
-1354 -20 -1355 0
-1354 20 1355 0
1354 -20 1355 0
1354 20 -1355 0
-1355 -31 -1356 0
-1355 31 1356 0
1355 -31 1356 0
1355 31 -1356 0
-1356 -32 -1357 0
-1356 32 1357 0
1356 -32 1357 0
1356 32 -1357 0
-1357 -33 -1358 0
-1357 33 1358 0
1357 -33 1358 0
1357 33 -1358 0
-1358 -34 -1359 0
-1358 34 1359 0
1358 -34 1359 0
1358 34 -1359 0
-1359 -35 -1360 0
-1359 35 1360 0
1359 -35 1360 0
1359 35 -1360 0
-1360 -36 -1361 0
-1360 36 1361 0
1360 -36 1361 0
1360 36 -1361 0
-1361 -37 -1362 0
-1361 37 1362 0
1361 -37 1362 0
1361 37 -1362 0
-1362 -38 -1363 0
-1362 38 1363 0
1362 -38 1363 0
1362 38 -1363 0
-1363 -40 -1364 0
-1363 40 1364 0
1363 -40 1364 0
1363 40 -1364 0
1347 1364 0
-11 -19 -1365 0
-11 19 1365 0
11 -19 1365 0
11 19 -1365 0
-1365 -20 -1366 0
-1365 20 1366 0
1365 -20 1366 0
1365 20 -1366 0
-1366 -21 -1367 0
-1366 21 1367 0
1366 -21 1367 0
1366 21 -1367 0
-1367 -29 -1368 0
-1367 29 1368 0
1367 -29 1368 0
1367 29 -1368 0
-1368 -30 -1369 0
-1368 30 1369 0
1368 -30 1369 0
1368 30 -1369 0
-11 -19 -1370 0
-11 19 1370 0
11 -19 1370 0
11 19 -1370 0
-1370 -20 -1371 0
-1370 20 1371 0
1370 -20 1371 0
1370 20 -1371 0
-1371 -31 -1372 0
-1371 31 1372 0
1371 -31 1372 0
1371 31 -1372 0
-1372 -39 -1373 0
-1372 39 1373 0
1372 -39 1373 0
1372 39 -1373 0
-1373 -40 -1374 0
-1373 40 1374 0
1373 -40 1374 0
1373 40 -1374 0
1369 1374 0
-22 -24 -1375 0
-22 24 1375 0
22 -24 1375 0
22 24 -1375 0
-1375 -25 -1376 0
-1375 25 1376 0
1375 -25 1376 0
1375 25 -1376 0
-1376 -29 -1377 0
-1376 29 1377 0
1376 -29 1377 0
1376 29 -1377 0
-1377 -30 -1378 0
-1377 30 1378 0
1377 -30 1378 0
1377 30 -1378 0
-12 -14 -1379 0
-12 14 1379 0
12 -14 1379 0
12 14 -1379 0
-1379 -15 -1380 0
-1379 15 1380 0
1379 -15 1380 0
1379 15 -1380 0
-1380 -19 -1381 0
-1380 19 1381 0
1380 -19 1381 0
1380 19 -1381 0
-1381 -20 -1382 0
-1381 20 1382 0
1381 -20 1382 0
1381 20 -1382 0
-1382 -32 -1383 0
-1382 32 1383 0
1382 -32 1383 0
1382 32 -1383 0
-1383 -34 -1384 0
-1383 34 1384 0
1383 -34 1384 0
1383 34 -1384 0
-1384 -35 -1385 0
-1384 35 1385 0
1384 -35 1385 0
1384 35 -1385 0
-1385 -39 -1386 0
-1385 39 1386 0
1385 -39 1386 0
1385 39 -1386 0
-1386 -40 -1387 0
-1386 40 1387 0
1386 -40 1387 0
1386 40 -1387 0
1378 1387 0
-2 -6 -1388 0
-2 6 1388 0
2 -6 1388 0
2 6 -1388 0
-1388 -9 -1389 0
-1388 9 1389 0
1388 -9 1389 0
1388 9 -1389 0
-1389 -10 -1390 0
-1389 10 1390 0
1389 -10 1390 0
1389 10 -1390 0
-1390 -22 -1391 0
-1390 22 1391 0
1390 -22 1391 0
1390 22 -1391 0
-1391 -26 -1392 0
-1391 26 1392 0
1391 -26 1392 0
1391 26 -1392 0
-1392 -29 -1393 0
-1392 29 1393 0
1392 -29 1393 0
1392 29 -1393 0
-1393 -30 -1394 0
-1393 30 1394 0
1393 -30 1394 0
1393 30 -1394 0
-32 -36 -1395 0
-32 36 1395 0
32 -36 1395 0
32 36 -1395 0
-1395 -39 -1396 0
-1395 39 1396 0
1395 -39 1396 0
1395 39 -1396 0
-1396 -40 -1397 0
-1396 40 1397 0
1396 -40 1397 0
1396 40 -1397 0
1394 1397 0
-22 -24 -1398 0
-22 24 1398 0
22 -24 1398 0
22 24 -1398 0
-1398 -25 -1399 0
-1398 25 1399 0
1398 -25 1399 0
1398 25 -1399 0
-1399 -26 -1400 0
-1399 26 1400 0
1399 -26 1400 0
1399 26 -1400 0
-1400 -29 -1401 0
-1400 29 1401 0
1400 -29 1401 0
1400 29 -1401 0
-1401 -30 -1402 0
-1401 30 1402 0
1401 -30 1402 0
1401 30 -1402 0
-2 -4 -1403 0
-2 4 1403 0
2 -4 1403 0
2 4 -1403 0
-1403 -5 -1404 0
-1403 5 1404 0
1403 -5 1404 0
1403 5 -1404 0
-1404 -6 -1405 0
-1404 6 1405 0
1404 -6 1405 0
1404 6 -1405 0
-1405 -9 -1406 0
-1405 9 1406 0
1405 -9 1406 0
1405 9 -1406 0
-1406 -10 -1407 0
-1406 10 1407 0
1406 -10 1407 0
1406 10 -1407 0
-1407 -12 -1408 0
-1407 12 1408 0
1407 -12 1408 0
1407 12 -1408 0
-1408 -14 -1409 0
-1408 14 1409 0
1408 -14 1409 0
1408 14 -1409 0
-1409 -15 -1410 0
-1409 15 1410 0
1409 -15 1410 0
1409 15 -1410 0
-1410 -16 -1411 0
-1410 16 1411 0
1410 -16 1411 0
1410 16 -1411 0
-1411 -19 -1412 0
-1411 19 1412 0
1411 -19 1412 0
1411 19 -1412 0
-1412 -20 -1413 0
-1412 20 1413 0
1412 -20 1413 0
1412 20 -1413 0
-1413 -32 -1414 0
-1413 32 1414 0
1413 -32 1414 0
1413 32 -1414 0
-1414 -34 -1415 0
-1414 34 1415 0
1414 -34 1415 0
1414 34 -1415 0
-1415 -35 -1416 0
-1415 35 1416 0
1415 -35 1416 0
1415 35 -1416 0
-1416 -36 -1417 0
-1416 36 1417 0
1416 -36 1417 0
1416 36 -1417 0
-1417 -39 -1418 0
-1417 39 1418 0
1417 -39 1418 0
1417 39 -1418 0
-1418 -40 -1419 0
-1418 40 1419 0
1418 -40 1419 0
1418 40 -1419 0
1402 1419 0
-12 -13 -1420 0
-12 13 1420 0
12 -13 1420 0
12 13 -1420 0
-1420 -16 -1421 0
-1420 16 1421 0
1420 -16 1421 0
1420 16 -1421 0
-1421 -17 -1422 0
-1421 17 1422 0
1421 -17 1422 0
1421 17 -1422 0
-1422 -19 -1423 0
-1422 19 1423 0
1422 -19 1423 0
1422 19 -1423 0
-1423 -20 -1424 0
-1423 20 1424 0
1423 -20 1424 0
1423 20 -1424 0
-1424 -22 -1425 0
-1424 22 1425 0
1424 -22 1425 0
1424 22 -1425 0
-1425 -23 -1426 0
-1425 23 1426 0
1425 -23 1426 0
1425 23 -1426 0
-1426 -26 -1427 0
-1426 26 1427 0
1426 -26 1427 0
1426 26 -1427 0
-1427 -27 -1428 0
-1427 27 1428 0
1427 -27 1428 0
1427 27 -1428 0
-1428 -29 -1429 0
-1428 29 1429 0
1428 -29 1429 0
1428 29 -1429 0
-1429 -30 -1430 0
-1429 30 1430 0
1429 -30 1430 0
1429 30 -1430 0
-32 -33 -1431 0
-32 33 1431 0
32 -33 1431 0
32 33 -1431 0
-1431 -36 -1432 0
-1431 36 1432 0
1431 -36 1432 0
1431 36 -1432 0
-1432 -37 -1433 0
-1432 37 1433 0
1432 -37 1433 0
1432 37 -1433 0
-1433 -39 -1434 0
-1433 39 1434 0
1433 -39 1434 0
1433 39 -1434 0
-1434 -40 -1435 0
-1434 40 1435 0
1434 -40 1435 0
1434 40 -1435 0
1430 1435 0
-11 -15 -1436 0
-11 15 1436 0
11 -15 1436 0
11 15 -1436 0
-1436 -16 -1437 0
-1436 16 1437 0
1436 -16 1437 0
1436 16 -1437 0
-1437 -17 -1438 0
-1437 17 1438 0
1437 -17 1438 0
1437 17 -1438 0
-1438 -19 -1439 0
-1438 19 1439 0
1438 -19 1439 0
1438 19 -1439 0
-1439 -20 -1440 0
-1439 20 1440 0
1439 -20 1440 0
1439 20 -1440 0
-1440 -21 -1441 0
-1440 21 1441 0
1440 -21 1441 0
1440 21 -1441 0
-1441 -25 -1442 0
-1441 25 1442 0
1441 -25 1442 0
1441 25 -1442 0
-1442 -26 -1443 0
-1442 26 1443 0
1442 -26 1443 0
1442 26 -1443 0
-1443 -27 -1444 0
-1443 27 1444 0
1443 -27 1444 0
1443 27 -1444 0
-1444 -29 -1445 0
-1444 29 1445 0
1444 -29 1445 0
1444 29 -1445 0
-1445 -30 -1446 0
-1445 30 1446 0
1445 -30 1446 0
1445 30 -1446 0
-31 -35 -1447 0
-31 35 1447 0
31 -35 1447 0
31 35 -1447 0
-1447 -36 -1448 0
-1447 36 1448 0
1447 -36 1448 0
1447 36 -1448 0
-1448 -37 -1449 0
-1448 37 1449 0
1448 -37 1449 0
1448 37 -1449 0
-1449 -39 -1450 0
-1449 39 1450 0
1449 -39 1450 0
1449 39 -1450 0
-1450 -40 -1451 0
-1450 40 1451 0
1450 -40 1451 0
1450 40 -1451 0
1446 1451 0
-1 -3 -1452 0
-1 3 1452 0
1 -3 1452 0
1 3 -1452 0
-1452 -5 -1453 0
-1452 5 1453 0
1452 -5 1453 0
1452 5 -1453 0
-1453 -6 -1454 0
-1453 6 1454 0
1453 -6 1454 0
1453 6 -1454 0
-1454 -7 -1455 0
-1454 7 1455 0
1454 -7 1455 0
1454 7 -1455 0
-1455 -9 -1456 0
-1455 9 1456 0
1455 -9 1456 0
1455 9 -1456 0
-1456 -10 -1457 0
-1456 10 1457 0
1456 -10 1457 0
1456 10 -1457 0
-1457 -21 -1458 0
-1457 21 1458 0
1457 -21 1458 0
1457 21 -1458 0
-1458 -23 -1459 0
-1458 23 1459 0
1458 -23 1459 0
1458 23 -1459 0
-1459 -25 -1460 0
-1459 25 1460 0
1459 -25 1460 0
1459 25 -1460 0
-1460 -26 -1461 0
-1460 26 1461 0
1460 -26 1461 0
1460 26 -1461 0
-1461 -27 -1462 0
-1461 27 1462 0
1461 -27 1462 0
1461 27 -1462 0
-1462 -29 -1463 0
-1462 29 1463 0
1462 -29 1463 0
1462 29 -1463 0
-1463 -30 -1464 0
-1463 30 1464 0
1463 -30 1464 0
1463 30 -1464 0
-31 -33 -1465 0
-31 33 1465 0
31 -33 1465 0
31 33 -1465 0
-1465 -35 -1466 0
-1465 35 1466 0
1465 -35 1466 0
1465 35 -1466 0
-1466 -36 -1467 0
-1466 36 1467 0
1466 -36 1467 0
1466 36 -1467 0
-1467 -37 -1468 0
-1467 37 1468 0
1467 -37 1468 0
1467 37 -1468 0
-1468 -39 -1469 0
-1468 39 1469 0
1468 -39 1469 0
1468 39 -1469 0
-1469 -40 -1470 0
-1469 40 1470 0
1469 -40 1470 0
1469 40 -1470 0
1464 1470 0
-1 -3 -1471 0
-1 3 1471 0
1 -3 1471 0
1 3 -1471 0
-1471 -5 -1472 0
-1471 5 1472 0
1471 -5 1472 0
1471 5 -1472 0
-1472 -6 -1473 0
-1472 6 1473 0
1472 -6 1473 0
1472 6 -1473 0
-1473 -8 -1474 0
-1473 8 1474 0
1473 -8 1474 0
1473 8 -1474 0
-1474 -9 -1475 0
-1474 9 1475 0
1474 -9 1475 0
1474 9 -1475 0
-1475 -10 -1476 0
-1475 10 1476 0
1475 -10 1476 0
1475 10 -1476 0
-1476 -11 -1477 0
-1476 11 1477 0
1476 -11 1477 0
1476 11 -1477 0
-1477 -13 -1478 0
-1477 13 1478 0
1477 -13 1478 0
1477 13 -1478 0
-1478 -15 -1479 0
-1478 15 1479 0
1478 -15 1479 0
1478 15 -1479 0
-1479 -16 -1480 0
-1479 16 1480 0
1479 -16 1480 0
1479 16 -1480 0
-1480 -18 -1481 0
-1480 18 1481 0
1480 -18 1481 0
1480 18 -1481 0
-1481 -19 -1482 0
-1481 19 1482 0
1481 -19 1482 0
1481 19 -1482 0
-1482 -20 -1483 0
-1482 20 1483 0
1482 -20 1483 0
1482 20 -1483 0
-1483 -21 -1484 0
-1483 21 1484 0
1483 -21 1484 0
1483 21 -1484 0
-1484 -23 -1485 0
-1484 23 1485 0
1484 -23 1485 0
1484 23 -1485 0
-1485 -25 -1486 0
-1485 25 1486 0
1485 -25 1486 0
1485 25 -1486 0
-1486 -26 -1487 0
-1486 26 1487 0
1486 -26 1487 0
1486 26 -1487 0
-1487 -28 -1488 0
-1487 28 1488 0
1487 -28 1488 0
1487 28 -1488 0
-1488 -29 -1489 0
-1488 29 1489 0
1488 -29 1489 0
1488 29 -1489 0
-1489 -30 -1490 0
-1489 30 1490 0
1489 -30 1490 0
1489 30 -1490 0
-11 -13 -1491 0
-11 13 1491 0
11 -13 1491 0
11 13 -1491 0
-1491 -15 -1492 0
-1491 15 1492 0
1491 -15 1492 0
1491 15 -1492 0
-1492 -16 -1493 0
-1492 16 1493 0
1492 -16 1493 0
1492 16 -1493 0
-1493 -18 -1494 0
-1493 18 1494 0
1493 -18 1494 0
1493 18 -1494 0
-1494 -19 -1495 0
-1494 19 1495 0
1494 -19 1495 0
1494 19 -1495 0
-1495 -20 -1496 0
-1495 20 1496 0
1495 -20 1496 0
1495 20 -1496 0
-1496 -31 -1497 0
-1496 31 1497 0
1496 -31 1497 0
1496 31 -1497 0
-1497 -33 -1498 0
-1497 33 1498 0
1497 -33 1498 0
1497 33 -1498 0
-1498 -35 -1499 0
-1498 35 1499 0
1498 -35 1499 0
1498 35 -1499 0
-1499 -36 -1500 0
-1499 36 1500 0
1499 -36 1500 0
1499 36 -1500 0
-1500 -38 -1501 0
-1500 38 1501 0
1500 -38 1501 0
1500 38 -1501 0
-1501 -39 -1502 0
-1501 39 1502 0
1501 -39 1502 0
1501 39 -1502 0
-1502 -40 -1503 0
-1502 40 1503 0
1502 -40 1503 0
1502 40 -1503 0
1490 1503 0
-5 -7 -1504 0
-5 7 1504 0
5 -7 1504 0
5 7 -1504 0
-1504 -8 -1505 0
-1504 8 1505 0
1504 -8 1505 0
1504 8 -1505 0
-1505 -9 -1506 0
-1505 9 1506 0
1505 -9 1506 0
1505 9 -1506 0
-1506 -10 -1507 0
-1506 10 1507 0
1506 -10 1507 0
1506 10 -1507 0
-1507 -15 -1508 0
-1507 15 1508 0
1507 -15 1508 0
1507 15 -1508 0
-1508 -17 -1509 0
-1508 17 1509 0
1508 -17 1509 0
1508 17 -1509 0
-1509 -18 -1510 0
-1509 18 1510 0
1509 -18 1510 0
1509 18 -1510 0
-1510 -19 -1511 0
-1510 19 1511 0
1510 -19 1511 0
1510 19 -1511 0
-1511 -20 -1512 0
-1511 20 1512 0
1511 -20 1512 0
1511 20 -1512 0
-1512 -25 -1513 0
-1512 25 1513 0
1512 -25 1513 0
1512 25 -1513 0
-1513 -27 -1514 0
-1513 27 1514 0
1513 -27 1514 0
1513 27 -1514 0
-1514 -28 -1515 0
-1514 28 1515 0
1514 -28 1515 0
1514 28 -1515 0
-1515 -29 -1516 0
-1515 29 1516 0
1515 -29 1516 0
1515 29 -1516 0
-1516 -30 -1517 0
-1516 30 1517 0
1516 -30 1517 0
1516 30 -1517 0
-5 -7 -1518 0
-5 7 1518 0
5 -7 1518 0
5 7 -1518 0
-1518 -8 -1519 0
-1518 8 1519 0
1518 -8 1519 0
1518 8 -1519 0
-1519 -9 -1520 0
-1519 9 1520 0
1519 -9 1520 0
1519 9 -1520 0
-1520 -10 -1521 0
-1520 10 1521 0
1520 -10 1521 0
1520 10 -1521 0
-1521 -35 -1522 0
-1521 35 1522 0
1521 -35 1522 0
1521 35 -1522 0
-1522 -37 -1523 0
-1522 37 1523 0
1522 -37 1523 0
1522 37 -1523 0
-1523 -38 -1524 0
-1523 38 1524 0
1523 -38 1524 0
1523 38 -1524 0
-1524 -39 -1525 0
-1524 39 1525 0
1524 -39 1525 0
1524 39 -1525 0
-1525 -40 -1526 0
-1525 40 1526 0
1525 -40 1526 0
1525 40 -1526 0
1517 1526 0
-1 -2 -1527 0
-1 2 1527 0
1 -2 1527 0
1 2 -1527 0
-1527 -3 -1528 0
-1527 3 1528 0
1527 -3 1528 0
1527 3 -1528 0
-1528 -4 -1529 0
-1528 4 1529 0
1528 -4 1529 0
1528 4 -1529 0
-1529 -5 -1530 0
-1529 5 1530 0
1529 -5 1530 0
1529 5 -1530 0
-1530 -7 -1531 0
-1530 7 1531 0
1530 -7 1531 0
1530 7 -1531 0
-1531 -8 -1532 0
-1531 8 1532 0
1531 -8 1532 0
1531 8 -1532 0
-1532 -9 -1533 0
-1532 9 1533 0
1532 -9 1533 0
1532 9 -1533 0
-1533 -10 -1534 0
-1533 10 1534 0
1533 -10 1534 0
1533 10 -1534 0
-1534 -21 -1535 0
-1534 21 1535 0
1534 -21 1535 0
1534 21 -1535 0
-1535 -22 -1536 0
-1535 22 1536 0
1535 -22 1536 0
1535 22 -1536 0
-1536 -23 -1537 0
-1536 23 1537 0
1536 -23 1537 0
1536 23 -1537 0
-1537 -24 -1538 0
-1537 24 1538 0
1537 -24 1538 0
1537 24 -1538 0
-1538 -25 -1539 0
-1538 25 1539 0
1538 -25 1539 0
1538 25 -1539 0
-1539 -27 -1540 0
-1539 27 1540 0
1539 -27 1540 0
1539 27 -1540 0
-1540 -28 -1541 0
-1540 28 1541 0
1540 -28 1541 0
1540 28 -1541 0
-1541 -29 -1542 0
-1541 29 1542 0
1541 -29 1542 0
1541 29 -1542 0
-1542 -30 -1543 0
-1542 30 1543 0
1542 -30 1543 0
1542 30 -1543 0
-1 -2 -1544 0
-1 2 1544 0
1 -2 1544 0
1 2 -1544 0
-1544 -3 -1545 0
-1544 3 1545 0
1544 -3 1545 0
1544 3 -1545 0
-1545 -4 -1546 0
-1545 4 1546 0
1545 -4 1546 0
1545 4 -1546 0
-1546 -5 -1547 0
-1546 5 1547 0
1546 -5 1547 0
1546 5 -1547 0
-1547 -7 -1548 0
-1547 7 1548 0
1547 -7 1548 0
1547 7 -1548 0
-1548 -8 -1549 0
-1548 8 1549 0
1548 -8 1549 0
1548 8 -1549 0
-1549 -9 -1550 0
-1549 9 1550 0
1549 -9 1550 0
1549 9 -1550 0
-1550 -10 -1551 0
-1550 10 1551 0
1550 -10 1551 0
1550 10 -1551 0
-1551 -31 -1552 0
-1551 31 1552 0
1551 -31 1552 0
1551 31 -1552 0
-1552 -32 -1553 0
-1552 32 1553 0
1552 -32 1553 0
1552 32 -1553 0
-1553 -33 -1554 0
-1553 33 1554 0
1553 -33 1554 0
1553 33 -1554 0
-1554 -34 -1555 0
-1554 34 1555 0
1554 -34 1555 0
1554 34 -1555 0
-1555 -35 -1556 0
-1555 35 1556 0
1555 -35 1556 0
1555 35 -1556 0
-1556 -37 -1557 0
-1556 37 1557 0
1556 -37 1557 0
1556 37 -1557 0
-1557 -38 -1558 0
-1557 38 1558 0
1557 -38 1558 0
1557 38 -1558 0
-1558 -39 -1559 0
-1558 39 1559 0
1558 -39 1559 0
1558 39 -1559 0
-1559 -40 -1560 0
-1559 40 1560 0
1559 -40 1560 0
1559 40 -1560 0
1543 1560 0
-6 -7 -1561 0
-6 7 1561 0
6 -7 1561 0
6 7 -1561 0
-1561 -8 -1562 0
-1561 8 1562 0
1561 -8 1562 0
1561 8 -1562 0
-1562 -9 -1563 0
-1562 9 1563 0
1562 -9 1563 0
1562 9 -1563 0
-1563 -10 -1564 0
-1563 10 1564 0
1563 -10 1564 0
1563 10 -1564 0
-1564 -16 -1565 0
-1564 16 1565 0
1564 -16 1565 0
1564 16 -1565 0
-1565 -17 -1566 0
-1565 17 1566 0
1565 -17 1566 0
1565 17 -1566 0
-1566 -18 -1567 0
-1566 18 1567 0
1566 -18 1567 0
1566 18 -1567 0
-1567 -19 -1568 0
-1567 19 1568 0
1567 -19 1568 0
1567 19 -1568 0
-1568 -20 -1569 0
-1568 20 1569 0
1568 -20 1569 0
1568 20 -1569 0
-1569 -26 -1570 0
-1569 26 1570 0
1569 -26 1570 0
1569 26 -1570 0
-1570 -27 -1571 0
-1570 27 1571 0
1570 -27 1571 0
1570 27 -1571 0
-1571 -28 -1572 0
-1571 28 1572 0
1571 -28 1572 0
1571 28 -1572 0
-1572 -29 -1573 0
-1572 29 1573 0
1572 -29 1573 0
1572 29 -1573 0
-1573 -30 -1574 0
-1573 30 1574 0
1573 -30 1574 0
1573 30 -1574 0
-6 -7 -1575 0
-6 7 1575 0
6 -7 1575 0
6 7 -1575 0
-1575 -8 -1576 0
-1575 8 1576 0
1575 -8 1576 0
1575 8 -1576 0
-1576 -9 -1577 0
-1576 9 1577 0
1576 -9 1577 0
1576 9 -1577 0
-1577 -10 -1578 0
-1577 10 1578 0
1577 -10 1578 0
1577 10 -1578 0
-1578 -16 -1579 0
-1578 16 1579 0
1578 -16 1579 0
1578 16 -1579 0
-1579 -17 -1580 0
-1579 17 1580 0
1579 -17 1580 0
1579 17 -1580 0
-1580 -18 -1581 0
-1580 18 1581 0
1580 -18 1581 0
1580 18 -1581 0
-1581 -19 -1582 0
-1581 19 1582 0
1581 -19 1582 0
1581 19 -1582 0
-1582 -20 -1583 0
-1582 20 1583 0
1582 -20 1583 0
1582 20 -1583 0
-1583 -36 -1584 0
-1583 36 1584 0
1583 -36 1584 0
1583 36 -1584 0
-1584 -37 -1585 0
-1584 37 1585 0
1584 -37 1585 0
1584 37 -1585 0
-1585 -38 -1586 0
-1585 38 1586 0
1585 -38 1586 0
1585 38 -1586 0
-1586 -39 -1587 0
-1586 39 1587 0
1586 -39 1587 0
1586 39 -1587 0
-1587 -40 -1588 0
-1587 40 1588 0
1587 -40 1588 0
1587 40 -1588 0
1574 1588 0
-1 -2 -1589 0
-1 2 1589 0
1 -2 1589 0
1 2 -1589 0
-1589 -6 -1590 0
-1589 6 1590 0
1589 -6 1590 0
1589 6 -1590 0
-1590 -7 -1591 0
-1590 7 1591 0
1590 -7 1591 0
1590 7 -1591 0
-1591 -8 -1592 0
-1591 8 1592 0
1591 -8 1592 0
1591 8 -1592 0
-1592 -9 -1593 0
-1592 9 1593 0
1592 -9 1593 0
1592 9 -1593 0
-1593 -10 -1594 0
-1593 10 1594 0
1593 -10 1594 0
1593 10 -1594 0
-1594 -11 -1595 0
-1594 11 1595 0
1594 -11 1595 0
1594 11 -1595 0
-1595 -12 -1596 0
-1595 12 1596 0
1595 -12 1596 0
1595 12 -1596 0
-1596 -16 -1597 0
-1596 16 1597 0
1596 -16 1597 0
1596 16 -1597 0
-1597 -17 -1598 0
-1597 17 1598 0
1597 -17 1598 0
1597 17 -1598 0
-1598 -18 -1599 0
-1598 18 1599 0
1598 -18 1599 0
1598 18 -1599 0
-1599 -19 -1600 0
-1599 19 1600 0
1599 -19 1600 0
1599 19 -1600 0
-1600 -20 -1601 0
-1600 20 1601 0
1600 -20 1601 0
1600 20 -1601 0
-1601 -21 -1602 0
-1601 21 1602 0
1601 -21 1602 0
1601 21 -1602 0
-1602 -22 -1603 0
-1602 22 1603 0
1602 -22 1603 0
1602 22 -1603 0
-1603 -26 -1604 0
-1603 26 1604 0
1603 -26 1604 0
1603 26 -1604 0
-1604 -27 -1605 0
-1604 27 1605 0
1604 -27 1605 0
1604 27 -1605 0
-1605 -28 -1606 0
-1605 28 1606 0
1605 -28 1606 0
1605 28 -1606 0
-1606 -29 -1607 0
-1606 29 1607 0
1606 -29 1607 0
1606 29 -1607 0
-1607 -30 -1608 0
-1607 30 1608 0
1607 -30 1608 0
1607 30 -1608 0
-1 -2 -1609 0
-1 2 1609 0
1 -2 1609 0
1 2 -1609 0
-1609 -6 -1610 0
-1609 6 1610 0
1609 -6 1610 0
1609 6 -1610 0
-1610 -7 -1611 0
-1610 7 1611 0
1610 -7 1611 0
1610 7 -1611 0
-1611 -8 -1612 0
-1611 8 1612 0
1611 -8 1612 0
1611 8 -1612 0
-1612 -9 -1613 0
-1612 9 1613 0
1612 -9 1613 0
1612 9 -1613 0
-1613 -10 -1614 0
-1613 10 1614 0
1613 -10 1614 0
1613 10 -1614 0
-1614 -11 -1615 0
-1614 11 1615 0
1614 -11 1615 0
1614 11 -1615 0
-1615 -12 -1616 0
-1615 12 1616 0
1615 -12 1616 0
1615 12 -1616 0
-1616 -16 -1617 0
-1616 16 1617 0
1616 -16 1617 0
1616 16 -1617 0
-1617 -17 -1618 0
-1617 17 1618 0
1617 -17 1618 0
1617 17 -1618 0
-1618 -18 -1619 0
-1618 18 1619 0
1618 -18 1619 0
1618 18 -1619 0
-1619 -19 -1620 0
-1619 19 1620 0
1619 -19 1620 0
1619 19 -1620 0
-1620 -20 -1621 0
-1620 20 1621 0
1620 -20 1621 0
1620 20 -1621 0
-1621 -31 -1622 0
-1621 31 1622 0
1621 -31 1622 0
1621 31 -1622 0
-1622 -32 -1623 0
-1622 32 1623 0
1622 -32 1623 0
1622 32 -1623 0
-1623 -36 -1624 0
-1623 36 1624 0
1623 -36 1624 0
1623 36 -1624 0
-1624 -37 -1625 0
-1624 37 1625 0
1624 -37 1625 0
1624 37 -1625 0
-1625 -38 -1626 0
-1625 38 1626 0
1625 -38 1626 0
1625 38 -1626 0
-1626 -39 -1627 0
-1626 39 1627 0
1626 -39 1627 0
1626 39 -1627 0
-1627 -40 -1628 0
-1627 40 1628 0
1627 -40 1628 0
1627 40 -1628 0
1608 1628 0
-12 -13 -1629 0
-12 13 1629 0
12 -13 1629 0
12 13 -1629 0
-1629 -14 -1630 0
-1629 14 1630 0
1629 -14 1630 0
1629 14 -1630 0
-1630 -16 -1631 0
-1630 16 1631 0
1630 -16 1631 0
1630 16 -1631 0
-1631 -17 -1632 0
-1631 17 1632 0
1631 -17 1632 0
1631 17 -1632 0
-1632 -18 -1633 0
-1632 18 1633 0
1632 -18 1633 0
1632 18 -1633 0
-1633 -19 -1634 0
-1633 19 1634 0
1633 -19 1634 0
1633 19 -1634 0
-1634 -20 -1635 0
-1634 20 1635 0
1634 -20 1635 0
1634 20 -1635 0
-1635 -22 -1636 0
-1635 22 1636 0
1635 -22 1636 0
1635 22 -1636 0
-1636 -23 -1637 0
-1636 23 1637 0
1636 -23 1637 0
1636 23 -1637 0
-1637 -24 -1638 0
-1637 24 1638 0
1637 -24 1638 0
1637 24 -1638 0
-1638 -26 -1639 0
-1638 26 1639 0
1638 -26 1639 0
1638 26 -1639 0
-1639 -27 -1640 0
-1639 27 1640 0
1639 -27 1640 0
1639 27 -1640 0
-1640 -28 -1641 0
-1640 28 1641 0
1640 -28 1641 0
1640 28 -1641 0
-1641 -29 -1642 0
-1641 29 1642 0
1641 -29 1642 0
1641 29 -1642 0
-1642 -30 -1643 0
-1642 30 1643 0
1642 -30 1643 0
1642 30 -1643 0
-12 -13 -1644 0
-12 13 1644 0
12 -13 1644 0
12 13 -1644 0
-1644 -14 -1645 0
-1644 14 1645 0
1644 -14 1645 0
1644 14 -1645 0
-1645 -16 -1646 0
-1645 16 1646 0
1645 -16 1646 0
1645 16 -1646 0
-1646 -17 -1647 0
-1646 17 1647 0
1646 -17 1647 0
1646 17 -1647 0
-1647 -18 -1648 0
-1647 18 1648 0
1647 -18 1648 0
1647 18 -1648 0
-1648 -19 -1649 0
-1648 19 1649 0
1648 -19 1649 0
1648 19 -1649 0
-1649 -20 -1650 0
-1649 20 1650 0
1649 -20 1650 0
1649 20 -1650 0
-1650 -32 -1651 0
-1650 32 1651 0
1650 -32 1651 0
1650 32 -1651 0
-1651 -33 -1652 0
-1651 33 1652 0
1651 -33 1652 0
1651 33 -1652 0
-1652 -34 -1653 0
-1652 34 1653 0
1652 -34 1653 0
1652 34 -1653 0
-1653 -36 -1654 0
-1653 36 1654 0
1653 -36 1654 0
1653 36 -1654 0
-1654 -37 -1655 0
-1654 37 1655 0
1654 -37 1655 0
1654 37 -1655 0
-1655 -38 -1656 0
-1655 38 1656 0
1655 -38 1656 0
1655 38 -1656 0
-1656 -39 -1657 0
-1656 39 1657 0
1656 -39 1657 0
1656 39 -1657 0
-1657 -40 -1658 0
-1657 40 1658 0
1657 -40 1658 0
1657 40 -1658 0
1643 1658 0
-11 -14 -1659 0
-11 14 1659 0
11 -14 1659 0
11 14 -1659 0
-1659 -15 -1660 0
-1659 15 1660 0
1659 -15 1660 0
1659 15 -1660 0
-1660 -16 -1661 0
-1660 16 1661 0
1660 -16 1661 0
1660 16 -1661 0
-1661 -17 -1662 0
-1661 17 1662 0
1661 -17 1662 0
1661 17 -1662 0
-1662 -18 -1663 0
-1662 18 1663 0
1662 -18 1663 0
1662 18 -1663 0
-1663 -19 -1664 0
-1663 19 1664 0
1663 -19 1664 0
1663 19 -1664 0
-1664 -20 -1665 0
-1664 20 1665 0
1664 -20 1665 0
1664 20 -1665 0
-1665 -21 -1666 0
-1665 21 1666 0
1665 -21 1666 0
1665 21 -1666 0
-1666 -24 -1667 0
-1666 24 1667 0
1666 -24 1667 0
1666 24 -1667 0
-1667 -25 -1668 0
-1667 25 1668 0
1667 -25 1668 0
1667 25 -1668 0
-1668 -26 -1669 0
-1668 26 1669 0
1668 -26 1669 0
1668 26 -1669 0
-1669 -27 -1670 0
-1669 27 1670 0
1669 -27 1670 0
1669 27 -1670 0
-1670 -28 -1671 0
-1670 28 1671 0
1670 -28 1671 0
1670 28 -1671 0
-1671 -29 -1672 0
-1671 29 1672 0
1671 -29 1672 0
1671 29 -1672 0
-1672 -30 -1673 0
-1672 30 1673 0
1672 -30 1673 0
1672 30 -1673 0
-1 -4 -1674 0
-1 4 1674 0
1 -4 1674 0
1 4 -1674 0
-1674 -5 -1675 0
-1674 5 1675 0
1674 -5 1675 0
1674 5 -1675 0
-1675 -6 -1676 0
-1675 6 1676 0
1675 -6 1676 0
1675 6 -1676 0
-1676 -7 -1677 0
-1676 7 1677 0
1676 -7 1677 0
1676 7 -1677 0
-1677 -8 -1678 0
-1677 8 1678 0
1677 -8 1678 0
1677 8 -1678 0
-1678 -9 -1679 0
-1678 9 1679 0
1678 -9 1679 0
1678 9 -1679 0
-1679 -10 -1680 0
-1679 10 1680 0
1679 -10 1680 0
1679 10 -1680 0
-1680 -31 -1681 0
-1680 31 1681 0
1680 -31 1681 0
1680 31 -1681 0
-1681 -34 -1682 0
-1681 34 1682 0
1681 -34 1682 0
1681 34 -1682 0
-1682 -35 -1683 0
-1682 35 1683 0
1682 -35 1683 0
1682 35 -1683 0
-1683 -36 -1684 0
-1683 36 1684 0
1683 -36 1684 0
1683 36 -1684 0
-1684 -37 -1685 0
-1684 37 1685 0
1684 -37 1685 0
1684 37 -1685 0
-1685 -38 -1686 0
-1685 38 1686 0
1685 -38 1686 0
1685 38 -1686 0
-1686 -39 -1687 0
-1686 39 1687 0
1686 -39 1687 0
1686 39 -1687 0
-1687 -40 -1688 0
-1687 40 1688 0
1687 -40 1688 0
1687 40 -1688 0
1673 1688 0
-1 -3 -1689 0
-1 3 1689 0
1 -3 1689 0
1 3 -1689 0
-1689 -4 -1690 0
-1689 4 1690 0
1689 -4 1690 0
1689 4 -1690 0
-1690 -5 -1691 0
-1690 5 1691 0
1690 -5 1691 0
1690 5 -1691 0
-1691 -6 -1692 0
-1691 6 1692 0
1691 -6 1692 0
1691 6 -1692 0
-1692 -7 -1693 0
-1692 7 1693 0
1692 -7 1693 0
1692 7 -1693 0
-1693 -8 -1694 0
-1693 8 1694 0
1693 -8 1694 0
1693 8 -1694 0
-1694 -9 -1695 0
-1694 9 1695 0
1694 -9 1695 0
1694 9 -1695 0
-1695 -10 -1696 0
-1695 10 1696 0
1695 -10 1696 0
1695 10 -1696 0
-1696 -21 -1697 0
-1696 21 1697 0
1696 -21 1697 0
1696 21 -1697 0
-1697 -23 -1698 0
-1697 23 1698 0
1697 -23 1698 0
1697 23 -1698 0
-1698 -24 -1699 0
-1698 24 1699 0
1698 -24 1699 0
1698 24 -1699 0
-1699 -25 -1700 0
-1699 25 1700 0
1699 -25 1700 0
1699 25 -1700 0
-1700 -26 -1701 0
-1700 26 1701 0
1700 -26 1701 0
1700 26 -1701 0
-1701 -27 -1702 0
-1701 27 1702 0
1701 -27 1702 0
1701 27 -1702 0
-1702 -28 -1703 0
-1702 28 1703 0
1702 -28 1703 0
1702 28 -1703 0
-1703 -29 -1704 0
-1703 29 1704 0
1703 -29 1704 0
1703 29 -1704 0
-1704 -30 -1705 0
-1704 30 1705 0
1704 -30 1705 0
1704 30 -1705 0
-1 -3 -1706 0
-1 3 1706 0
1 -3 1706 0
1 3 -1706 0
-1706 -4 -1707 0
-1706 4 1707 0
1706 -4 1707 0
1706 4 -1707 0
-1707 -5 -1708 0
-1707 5 1708 0
1707 -5 1708 0
1707 5 -1708 0
-1708 -6 -1709 0
-1708 6 1709 0
1708 -6 1709 0
1708 6 -1709 0
-1709 -7 -1710 0
-1709 7 1710 0
1709 -7 1710 0
1709 7 -1710 0
-1710 -8 -1711 0
-1710 8 1711 0
1710 -8 1711 0
1710 8 -1711 0
-1711 -9 -1712 0
-1711 9 1712 0
1711 -9 1712 0
1711 9 -1712 0
-1712 -10 -1713 0
-1712 10 1713 0
1712 -10 1713 0
1712 10 -1713 0
-1713 -31 -1714 0
-1713 31 1714 0
1713 -31 1714 0
1713 31 -1714 0
-1714 -33 -1715 0
-1714 33 1715 0
1714 -33 1715 0
1714 33 -1715 0
-1715 -34 -1716 0
-1715 34 1716 0
1715 -34 1716 0
1715 34 -1716 0
-1716 -35 -1717 0
-1716 35 1717 0
1716 -35 1717 0
1716 35 -1717 0
-1717 -36 -1718 0
-1717 36 1718 0
1717 -36 1718 0
1717 36 -1718 0
-1718 -37 -1719 0
-1718 37 1719 0
1718 -37 1719 0
1718 37 -1719 0
-1719 -38 -1720 0
-1719 38 1720 0
1719 -38 1720 0
1719 38 -1720 0
-1720 -39 -1721 0
-1720 39 1721 0
1720 -39 1721 0
1720 39 -1721 0
-1721 -40 -1722 0
-1721 40 1722 0
1721 -40 1722 0
1721 40 -1722 0
1705 1722 0
