p cnf                 1786                 7089
-1 -9 -41 0
-1 9 41 0
1 -9 41 0
1 9 -41 0
-11 -19 -42 0
-11 19 42 0
11 -19 42 0
11 19 -42 0
-42 -21 -43 0
-42 21 43 0
42 -21 43 0
42 21 -43 0
-43 -29 -44 0
-43 29 44 0
43 -29 44 0
43 29 -44 0
41 44 0
-2 -5 -45 0
-2 5 45 0
2 -5 45 0
2 5 -45 0
-45 -6 -46 0
-45 6 46 0
45 -6 46 0
45 6 -46 0
-46 -9 -47 0
-46 9 47 0
46 -9 47 0
46 9 -47 0
-12 -15 -48 0
-12 15 48 0
12 -15 48 0
12 15 -48 0
-48 -16 -49 0
-48 16 49 0
48 -16 49 0
48 16 -49 0
-49 -19 -50 0
-49 19 50 0
49 -19 50 0
49 19 -50 0
-50 -32 -51 0
-50 32 51 0
50 -32 51 0
50 32 -51 0
-51 -35 -52 0
-51 35 52 0
51 -35 52 0
51 35 -52 0
-52 -36 -53 0
-52 36 53 0
52 -36 53 0
52 36 -53 0
-53 -39 -54 0
-53 39 54 0
53 -39 54 0
53 39 -54 0
47 54 0
-3 -5 -55 0
-3 5 55 0
3 -5 55 0
3 5 -55 0
-55 -7 -56 0
-55 7 56 0
55 -7 56 0
55 7 -56 0
-56 -9 -57 0
-56 9 57 0
56 -9 57 0
56 9 -57 0
-33 -35 -58 0
-33 35 58 0
33 -35 58 0
33 35 -58 0
-58 -37 -59 0
-58 37 59 0
58 -37 59 0
58 37 -59 0
-59 -39 -60 0
-59 39 60 0
59 -39 60 0
59 39 -60 0
57 60 0
-1 -4 -61 0
-1 4 61 0
1 -4 61 0
1 4 -61 0
-61 -8 -62 0
-61 8 62 0
61 -8 62 0
61 8 -62 0
-62 -9 -63 0
-62 9 63 0
62 -9 63 0
62 9 -63 0
-21 -24 -64 0
-21 24 64 0
21 -24 64 0
21 24 -64 0
-64 -28 -65 0
-64 28 65 0
64 -28 65 0
64 28 -65 0
-65 -29 -66 0
-65 29 66 0
65 -29 66 0
65 29 -66 0
-66 -31 -67 0
-66 31 67 0
66 -31 67 0
66 31 -67 0
-67 -34 -68 0
-67 34 68 0
67 -34 68 0
67 34 -68 0
-68 -38 -69 0
-68 38 69 0
68 -38 69 0
68 38 -69 0
-69 -39 -70 0
-69 39 70 0
69 -39 70 0
69 39 -70 0
63 70 0
-1 -2 -71 0
-1 2 71 0
1 -2 71 0
1 2 -71 0
-71 -4 -72 0
-71 4 72 0
71 -4 72 0
71 4 -72 0
-72 -6 -73 0
-72 6 73 0
72 -6 73 0
72 6 -73 0
-73 -8 -74 0
-73 8 74 0
73 -8 74 0
73 8 -74 0
-74 -9 -75 0
-74 9 75 0
74 -9 75 0
74 9 -75 0
-11 -12 -76 0
-11 12 76 0
11 -12 76 0
11 12 -76 0
-76 -14 -77 0
-76 14 77 0
76 -14 77 0
76 14 -77 0
-77 -16 -78 0
-77 16 78 0
77 -16 78 0
77 16 -78 0
-78 -18 -79 0
-78 18 79 0
78 -18 79 0
78 18 -79 0
-79 -19 -80 0
-79 19 80 0
79 -19 80 0
79 19 -80 0
75 80 0
-2 -4 -81 0
-2 4 81 0
2 -4 81 0
2 4 -81 0
-81 -5 -82 0
-81 5 82 0
81 -5 82 0
81 5 -82 0
-82 -6 -83 0
-82 6 83 0
82 -6 83 0
82 6 -83 0
-83 -8 -84 0
-83 8 84 0
83 -8 84 0
83 8 -84 0
-84 -9 -85 0
-84 9 85 0
84 -9 85 0
84 9 -85 0
-22 -24 -86 0
-22 24 86 0
22 -24 86 0
22 24 -86 0
-86 -25 -87 0
-86 25 87 0
86 -25 87 0
86 25 -87 0
-87 -26 -88 0
-87 26 88 0
87 -26 88 0
87 26 -88 0
-88 -28 -89 0
-88 28 89 0
88 -28 89 0
88 28 -89 0
-89 -29 -90 0
-89 29 90 0
89 -29 90 0
89 29 -90 0
85 90 0
-2 -3 -91 0
-2 3 91 0
2 -3 91 0
2 3 -91 0
-91 -4 -92 0
-91 4 92 0
91 -4 92 0
91 4 -92 0
-92 -5 -93 0
-92 5 93 0
92 -5 93 0
92 5 -93 0
-93 -6 -94 0
-93 6 94 0
93 -6 94 0
93 6 -94 0
-94 -7 -95 0
-94 7 95 0
94 -7 95 0
94 7 -95 0
-95 -8 -96 0
-95 8 96 0
95 -8 96 0
95 8 -96 0
-96 -9 -97 0
-96 9 97 0
96 -9 97 0
96 9 -97 0
-12 -13 -98 0
-12 13 98 0
12 -13 98 0
12 13 -98 0
-98 -14 -99 0
-98 14 99 0
98 -14 99 0
98 14 -99 0
-99 -15 -100 0
-99 15 100 0
99 -15 100 0
99 15 -100 0
-100 -16 -101 0
-100 16 101 0
100 -16 101 0
100 16 -101 0
-101 -17 -102 0
-101 17 102 0
101 -17 102 0
101 17 -102 0
-102 -18 -103 0
-102 18 103 0
102 -18 103 0
102 18 -103 0
-103 -19 -104 0
-103 19 104 0
103 -19 104 0
103 19 -104 0
-104 -22 -105 0
-104 22 105 0
104 -22 105 0
104 22 -105 0
-105 -23 -106 0
-105 23 106 0
105 -23 106 0
105 23 -106 0
-106 -24 -107 0
-106 24 107 0
106 -24 107 0
106 24 -107 0
-107 -25 -108 0
-107 25 108 0
107 -25 108 0
107 25 -108 0
-108 -26 -109 0
-108 26 109 0
108 -26 109 0
108 26 -109 0
-109 -27 -110 0
-109 27 110 0
109 -27 110 0
109 27 -110 0
-110 -28 -111 0
-110 28 111 0
110 -28 111 0
110 28 -111 0
-111 -29 -112 0
-111 29 112 0
111 -29 112 0
111 29 -112 0
-112 -32 -113 0
-112 32 113 0
112 -32 113 0
112 32 -113 0
-113 -33 -114 0
-113 33 114 0
113 -33 114 0
113 33 -114 0
-114 -34 -115 0
-114 34 115 0
114 -34 115 0
114 34 -115 0
-115 -35 -116 0
-115 35 116 0
115 -35 116 0
115 35 -116 0
-116 -36 -117 0
-116 36 117 0
116 -36 117 0
116 36 -117 0
-117 -37 -118 0
-117 37 118 0
117 -37 118 0
117 37 -118 0
-118 -38 -119 0
-118 38 119 0
118 -38 119 0
118 38 -119 0
-119 -39 -120 0
-119 39 120 0
119 -39 120 0
119 39 -120 0
97 120 0
-2 -10 -121 0
-2 10 121 0
2 -10 121 0
2 10 -121 0
-12 -20 -122 0
-12 20 122 0
12 -20 122 0
12 20 -122 0
-122 -22 -123 0
-122 22 123 0
122 -22 123 0
122 22 -123 0
-123 -30 -124 0
-123 30 124 0
123 -30 124 0
123 30 -124 0
121 124 0
-3 -6 -125 0
-3 6 125 0
3 -6 125 0
3 6 -125 0
-125 -7 -126 0
-125 7 126 0
125 -7 126 0
125 7 -126 0
-126 -10 -127 0
-126 10 127 0
126 -10 127 0
126 10 -127 0
-13 -16 -128 0
-13 16 128 0
13 -16 128 0
13 16 -128 0
-128 -17 -129 0
-128 17 129 0
128 -17 129 0
128 17 -129 0
-129 -20 -130 0
-129 20 130 0
129 -20 130 0
129 20 -130 0
-130 -33 -131 0
-130 33 131 0
130 -33 131 0
130 33 -131 0
-131 -36 -132 0
-131 36 132 0
131 -36 132 0
131 36 -132 0
-132 -37 -133 0
-132 37 133 0
132 -37 133 0
132 37 -133 0
-133 -40 -134 0
-133 40 134 0
133 -40 134 0
133 40 -134 0
127 134 0
-1 -3 -135 0
-1 3 135 0
1 -3 135 0
1 3 -135 0
-135 -5 -136 0
-135 5 136 0
135 -5 136 0
135 5 -136 0
-136 -6 -137 0
-136 6 137 0
136 -6 137 0
136 6 -137 0
-137 -7 -138 0
-137 7 138 0
137 -7 138 0
137 7 -138 0
-138 -10 -139 0
-138 10 139 0
138 -10 139 0
138 10 -139 0
-11 -13 -140 0
-11 13 140 0
11 -13 140 0
11 13 -140 0
-140 -15 -141 0
-140 15 141 0
140 -15 141 0
140 15 -141 0
-141 -16 -142 0
-141 16 142 0
141 -16 142 0
141 16 -142 0
-142 -17 -143 0
-142 17 143 0
142 -17 143 0
142 17 -143 0
-143 -20 -144 0
-143 20 144 0
143 -20 144 0
143 20 -144 0
-144 -21 -145 0
-144 21 145 0
144 -21 145 0
144 21 -145 0
-145 -23 -146 0
-145 23 146 0
145 -23 146 0
145 23 -146 0
-146 -25 -147 0
-146 25 147 0
146 -25 147 0
146 25 -147 0
-147 -26 -148 0
-147 26 148 0
147 -26 148 0
147 26 -148 0
-148 -27 -149 0
-148 27 149 0
148 -27 149 0
148 27 -149 0
-149 -30 -150 0
-149 30 150 0
149 -30 150 0
149 30 -150 0
-150 -31 -151 0
-150 31 151 0
150 -31 151 0
150 31 -151 0
-151 -33 -152 0
-151 33 152 0
151 -33 152 0
151 33 -152 0
-152 -35 -153 0
-152 35 153 0
152 -35 153 0
152 35 -153 0
-153 -36 -154 0
-153 36 154 0
153 -36 154 0
153 36 -154 0
-154 -37 -155 0
-154 37 155 0
154 -37 155 0
154 37 -155 0
-155 -40 -156 0
-155 40 156 0
155 -40 156 0
155 40 -156 0
139 156 0
-1 -2 -157 0
-1 2 157 0
1 -2 157 0
1 2 -157 0
-157 -4 -158 0
-157 4 158 0
157 -4 158 0
157 4 -158 0
-158 -5 -159 0
-158 5 159 0
158 -5 159 0
158 5 -159 0
-159 -8 -160 0
-159 8 160 0
159 -8 160 0
159 8 -160 0
-160 -10 -161 0
-160 10 161 0
160 -10 161 0
160 10 -161 0
-21 -22 -162 0
-21 22 162 0
21 -22 162 0
21 22 -162 0
-162 -24 -163 0
-162 24 163 0
162 -24 163 0
162 24 -163 0
-163 -25 -164 0
-163 25 164 0
163 -25 164 0
163 25 -164 0
-164 -28 -165 0
-164 28 165 0
164 -28 165 0
164 28 -165 0
-165 -30 -166 0
-165 30 166 0
165 -30 166 0
165 30 -166 0
-166 -31 -167 0
-166 31 167 0
166 -31 167 0
166 31 -167 0
-167 -32 -168 0
-167 32 168 0
167 -32 168 0
167 32 -168 0
-168 -34 -169 0
-168 34 169 0
168 -34 169 0
168 34 -169 0
-169 -35 -170 0
-169 35 170 0
169 -35 170 0
169 35 -170 0
-170 -38 -171 0
-170 38 171 0
170 -38 171 0
170 38 -171 0
-171 -40 -172 0
-171 40 172 0
171 -40 172 0
171 40 -172 0
161 172 0
-4 -6 -173 0
-4 6 173 0
4 -6 173 0
4 6 -173 0
-173 -8 -174 0
-173 8 174 0
173 -8 174 0
173 8 -174 0
-174 -10 -175 0
-174 10 175 0
174 -10 175 0
174 10 -175 0
-34 -36 -176 0
-34 36 176 0
34 -36 176 0
34 36 -176 0
-176 -38 -177 0
-176 38 177 0
176 -38 177 0
176 38 -177 0
-177 -40 -178 0
-177 40 178 0
177 -40 178 0
177 40 -178 0
175 178 0
-1 -2 -179 0
-1 2 179 0
1 -2 179 0
1 2 -179 0
-179 -3 -180 0
-179 3 180 0
179 -3 180 0
179 3 -180 0
-180 -4 -181 0
-180 4 181 0
180 -4 181 0
180 4 -181 0
-181 -5 -182 0
-181 5 182 0
181 -5 182 0
181 5 -182 0
-182 -7 -183 0
-182 7 183 0
182 -7 183 0
182 7 -183 0
-183 -8 -184 0
-183 8 184 0
183 -8 184 0
183 8 -184 0
-184 -10 -185 0
-184 10 185 0
184 -10 185 0
184 10 -185 0
-11 -12 -186 0
-11 12 186 0
11 -12 186 0
11 12 -186 0
-186 -13 -187 0
-186 13 187 0
186 -13 187 0
186 13 -187 0
-187 -14 -188 0
-187 14 188 0
187 -14 188 0
187 14 -188 0
-188 -15 -189 0
-188 15 189 0
188 -15 189 0
188 15 -189 0
-189 -17 -190 0
-189 17 190 0
189 -17 190 0
189 17 -190 0
-190 -18 -191 0
-190 18 191 0
190 -18 191 0
190 18 -191 0
-191 -20 -192 0
-191 20 192 0
191 -20 192 0
191 20 -192 0
185 192 0
-1 -3 -193 0
-1 3 193 0
1 -3 193 0
1 3 -193 0
-193 -4 -194 0
-193 4 194 0
193 -4 194 0
193 4 -194 0
-194 -5 -195 0
-194 5 195 0
194 -5 195 0
194 5 -195 0
-195 -6 -196 0
-195 6 196 0
195 -6 196 0
195 6 -196 0
-196 -7 -197 0
-196 7 197 0
196 -7 197 0
196 7 -197 0
-197 -8 -198 0
-197 8 198 0
197 -8 198 0
197 8 -198 0
-198 -10 -199 0
-198 10 199 0
198 -10 199 0
198 10 -199 0
-21 -23 -200 0
-21 23 200 0
21 -23 200 0
21 23 -200 0
-200 -24 -201 0
-200 24 201 0
200 -24 201 0
200 24 -201 0
-201 -25 -202 0
-201 25 202 0
201 -25 202 0
201 25 -202 0
-202 -26 -203 0
-202 26 203 0
202 -26 203 0
202 26 -203 0
-203 -27 -204 0
-203 27 204 0
203 -27 204 0
203 27 -204 0
-204 -28 -205 0
-204 28 205 0
204 -28 205 0
204 28 -205 0
-205 -30 -206 0
-205 30 206 0
205 -30 206 0
205 30 -206 0
199 206 0
-1 -2 -207 0
-1 2 207 0
1 -2 207 0
1 2 -207 0
-207 -9 -208 0
-207 9 208 0
207 -9 208 0
207 9 -208 0
-208 -10 -209 0
-208 10 209 0
208 -10 209 0
208 10 -209 0
-11 -12 -210 0
-11 12 210 0
11 -12 210 0
11 12 -210 0
-210 -19 -211 0
-210 19 211 0
210 -19 211 0
210 19 -211 0
-211 -20 -212 0
-211 20 212 0
211 -20 212 0
211 20 -212 0
-212 -21 -213 0
-212 21 213 0
212 -21 213 0
212 21 -213 0
-213 -22 -214 0
-213 22 214 0
213 -22 214 0
213 22 -214 0
-214 -29 -215 0
-214 29 215 0
214 -29 215 0
214 29 -215 0
-215 -30 -216 0
-215 30 216 0
215 -30 216 0
215 30 -216 0
209 216 0
-2 -5 -217 0
-2 5 217 0
2 -5 217 0
2 5 -217 0
-217 -9 -218 0
-217 9 218 0
217 -9 218 0
217 9 -218 0
-218 -10 -219 0
-218 10 219 0
218 -10 219 0
218 10 -219 0
-22 -25 -220 0
-22 25 220 0
22 -25 220 0
22 25 -220 0
-220 -29 -221 0
-220 29 221 0
220 -29 221 0
220 29 -221 0
-221 -30 -222 0
-221 30 222 0
221 -30 222 0
221 30 -222 0
-222 -32 -223 0
-222 32 223 0
222 -32 223 0
222 32 -223 0
-223 -35 -224 0
-223 35 224 0
223 -35 224 0
223 35 -224 0
-224 -39 -225 0
-224 39 225 0
224 -39 225 0
224 39 -225 0
-225 -40 -226 0
-225 40 226 0
225 -40 226 0
225 40 -226 0
219 226 0
-1 -2 -227 0
-1 2 227 0
1 -2 227 0
1 2 -227 0
-227 -3 -228 0
-227 3 228 0
227 -3 228 0
227 3 -228 0
-228 -7 -229 0
-228 7 229 0
228 -7 229 0
228 7 -229 0
-229 -9 -230 0
-229 9 230 0
229 -9 230 0
229 9 -230 0
-230 -10 -231 0
-230 10 231 0
230 -10 231 0
230 10 -231 0
-21 -22 -232 0
-21 22 232 0
21 -22 232 0
21 22 -232 0
-232 -23 -233 0
-232 23 233 0
232 -23 233 0
232 23 -233 0
-233 -27 -234 0
-233 27 234 0
233 -27 234 0
233 27 -234 0
-234 -29 -235 0
-234 29 235 0
234 -29 235 0
234 29 -235 0
-235 -30 -236 0
-235 30 236 0
235 -30 236 0
235 30 -236 0
231 236 0
-2 -3 -237 0
-2 3 237 0
2 -3 237 0
2 3 -237 0
-237 -5 -238 0
-237 5 238 0
237 -5 238 0
237 5 -238 0
-238 -7 -239 0
-238 7 239 0
238 -7 239 0
238 7 -239 0
-239 -9 -240 0
-239 9 240 0
239 -9 240 0
239 9 -240 0
-240 -10 -241 0
-240 10 241 0
240 -10 241 0
240 10 -241 0
-12 -13 -242 0
-12 13 242 0
12 -13 242 0
12 13 -242 0
-242 -15 -243 0
-242 15 243 0
242 -15 243 0
242 15 -243 0
-243 -17 -244 0
-243 17 244 0
243 -17 244 0
243 17 -244 0
-244 -19 -245 0
-244 19 245 0
244 -19 245 0
244 19 -245 0
-245 -20 -246 0
-245 20 246 0
245 -20 246 0
245 20 -246 0
-246 -32 -247 0
-246 32 247 0
246 -32 247 0
246 32 -247 0
-247 -33 -248 0
-247 33 248 0
247 -33 248 0
247 33 -248 0
-248 -35 -249 0
-248 35 249 0
248 -35 249 0
248 35 -249 0
-249 -37 -250 0
-249 37 250 0
249 -37 250 0
249 37 -250 0
-250 -39 -251 0
-250 39 251 0
250 -39 251 0
250 39 -251 0
-251 -40 -252 0
-251 40 252 0
251 -40 252 0
251 40 -252 0
241 252 0
-3 -5 -253 0
-3 5 253 0
3 -5 253 0
3 5 -253 0
-253 -6 -254 0
-253 6 254 0
253 -6 254 0
253 6 -254 0
-254 -7 -255 0
-254 7 255 0
254 -7 255 0
254 7 -255 0
-255 -9 -256 0
-255 9 256 0
255 -9 256 0
255 9 -256 0
-256 -10 -257 0
-256 10 257 0
256 -10 257 0
256 10 -257 0
-13 -15 -258 0
-13 15 258 0
13 -15 258 0
13 15 -258 0
-258 -16 -259 0
-258 16 259 0
258 -16 259 0
258 16 -259 0
-259 -17 -260 0
-259 17 260 0
259 -17 260 0
259 17 -260 0
-260 -19 -261 0
-260 19 261 0
260 -19 261 0
260 19 -261 0
-261 -20 -262 0
-261 20 262 0
261 -20 262 0
261 20 -262 0
257 262 0
-1 -2 -263 0
-1 2 263 0
1 -2 263 0
1 2 -263 0
-263 -4 -264 0
-263 4 264 0
263 -4 264 0
263 4 -264 0
-264 -8 -265 0
-264 8 265 0
264 -8 265 0
264 8 -265 0
-265 -9 -266 0
-265 9 266 0
265 -9 266 0
265 9 -266 0
-266 -10 -267 0
-266 10 267 0
266 -10 267 0
266 10 -267 0
-11 -12 -268 0
-11 12 268 0
11 -12 268 0
11 12 -268 0
-268 -14 -269 0
-268 14 269 0
268 -14 269 0
268 14 -269 0
-269 -18 -270 0
-269 18 270 0
269 -18 270 0
269 18 -270 0
-270 -19 -271 0
-270 19 271 0
270 -19 271 0
270 19 -271 0
-271 -20 -272 0
-271 20 272 0
271 -20 272 0
271 20 -272 0
-272 -21 -273 0
-272 21 273 0
272 -21 273 0
272 21 -273 0
-273 -22 -274 0
-273 22 274 0
273 -22 274 0
273 22 -274 0
-274 -24 -275 0
-274 24 275 0
274 -24 275 0
274 24 -275 0
-275 -28 -276 0
-275 28 276 0
275 -28 276 0
275 28 -276 0
-276 -29 -277 0
-276 29 277 0
276 -29 277 0
276 29 -277 0
-277 -30 -278 0
-277 30 278 0
277 -30 278 0
277 30 -278 0
-278 -31 -279 0
-278 31 279 0
278 -31 279 0
278 31 -279 0
-279 -32 -280 0
-279 32 280 0
279 -32 280 0
279 32 -280 0
-280 -34 -281 0
-280 34 281 0
280 -34 281 0
280 34 -281 0
-281 -38 -282 0
-281 38 282 0
281 -38 282 0
281 38 -282 0
-282 -39 -283 0
-282 39 283 0
282 -39 283 0
282 39 -283 0
-283 -40 -284 0
-283 40 284 0
283 -40 284 0
283 40 -284 0
267 284 0
-3 -4 -285 0
-3 4 285 0
3 -4 285 0
3 4 -285 0
-285 -5 -286 0
-285 5 286 0
285 -5 286 0
285 5 -286 0
-286 -6 -287 0
-286 6 287 0
286 -6 287 0
286 6 -287 0
-287 -7 -288 0
-287 7 288 0
287 -7 288 0
287 7 -288 0
-288 -8 -289 0
-288 8 289 0
288 -8 289 0
288 8 -289 0
-289 -9 -290 0
-289 9 290 0
289 -9 290 0
289 9 -290 0
-290 -10 -291 0
-290 10 291 0
290 -10 291 0
290 10 -291 0
-33 -34 -292 0
-33 34 292 0
33 -34 292 0
33 34 -292 0
-292 -35 -293 0
-292 35 293 0
292 -35 293 0
292 35 -293 0
-293 -36 -294 0
-293 36 294 0
293 -36 294 0
293 36 -294 0
-294 -37 -295 0
-294 37 295 0
294 -37 295 0
294 37 -295 0
-295 -38 -296 0
-295 38 296 0
295 -38 296 0
295 38 -296 0
-296 -39 -297 0
-296 39 297 0
296 -39 297 0
296 39 -297 0
-297 -40 -298 0
-297 40 298 0
297 -40 298 0
297 40 -298 0
291 298 0
-1 -2 -299 0
-1 2 299 0
1 -2 299 0
1 2 -299 0
-299 -9 -300 0
-299 9 300 0
299 -9 300 0
299 9 -300 0
-300 -11 -301 0
-300 11 301 0
300 -11 301 0
300 11 -301 0
-301 -12 -302 0
-301 12 302 0
301 -12 302 0
301 12 -302 0
-302 -19 -303 0
-302 19 303 0
302 -19 303 0
302 19 -303 0
-1 -2 -304 0
-1 2 304 0
1 -2 304 0
1 2 -304 0
-304 -9 -305 0
-304 9 305 0
304 -9 305 0
304 9 -305 0
-305 -31 -306 0
-305 31 306 0
305 -31 306 0
305 31 -306 0
-306 -32 -307 0
-306 32 307 0
306 -32 307 0
306 32 -307 0
-307 -39 -308 0
-307 39 308 0
307 -39 308 0
307 39 -308 0
303 308 0
-14 -19 -309 0
-14 19 309 0
14 -19 309 0
14 19 -309 0
-24 -29 -310 0
-24 29 310 0
24 -29 310 0
24 29 -310 0
-310 -34 -311 0
-310 34 311 0
310 -34 311 0
310 34 -311 0
-311 -39 -312 0
-311 39 312 0
311 -39 312 0
311 39 -312 0
309 312 0
-2 -3 -313 0
-2 3 313 0
2 -3 313 0
2 3 -313 0
-313 -6 -314 0
-313 6 314 0
313 -6 314 0
313 6 -314 0
-314 -9 -315 0
-314 9 315 0
314 -9 315 0
314 9 -315 0
-315 -12 -316 0
-315 12 316 0
315 -12 316 0
315 12 -316 0
-316 -13 -317 0
-316 13 317 0
316 -13 317 0
316 13 -317 0
-317 -16 -318 0
-317 16 318 0
317 -16 318 0
317 16 -318 0
-318 -19 -319 0
-318 19 319 0
318 -19 319 0
318 19 -319 0
-2 -3 -320 0
-2 3 320 0
2 -3 320 0
2 3 -320 0
-320 -6 -321 0
-320 6 321 0
320 -6 321 0
320 6 -321 0
-321 -9 -322 0
-321 9 322 0
321 -9 322 0
321 9 -322 0
-322 -22 -323 0
-322 22 323 0
322 -22 323 0
322 22 -323 0
-323 -23 -324 0
-323 23 324 0
323 -23 324 0
323 23 -324 0
-324 -26 -325 0
-324 26 325 0
324 -26 325 0
324 26 -325 0
-325 -29 -326 0
-325 29 326 0
325 -29 326 0
325 29 -326 0
-326 -32 -327 0
-326 32 327 0
326 -32 327 0
326 32 -327 0
-327 -33 -328 0
-327 33 328 0
327 -33 328 0
327 33 -328 0
-328 -36 -329 0
-328 36 329 0
328 -36 329 0
328 36 -329 0
-329 -39 -330 0
-329 39 330 0
329 -39 330 0
329 39 -330 0
319 330 0
-1 -2 -331 0
-1 2 331 0
1 -2 331 0
1 2 -331 0
-331 -3 -332 0
-331 3 332 0
331 -3 332 0
331 3 -332 0
-332 -5 -333 0
-332 5 333 0
332 -5 333 0
332 5 -333 0
-333 -7 -334 0
-333 7 334 0
333 -7 334 0
333 7 -334 0
-334 -9 -335 0
-334 9 335 0
334 -9 335 0
334 9 -335 0
-335 -11 -336 0
-335 11 336 0
335 -11 336 0
335 11 -336 0
-336 -12 -337 0
-336 12 337 0
336 -12 337 0
336 12 -337 0
-337 -13 -338 0
-337 13 338 0
337 -13 338 0
337 13 -338 0
-338 -15 -339 0
-338 15 339 0
338 -15 339 0
338 15 -339 0
-339 -17 -340 0
-339 17 340 0
339 -17 340 0
339 17 -340 0
-340 -19 -341 0
-340 19 341 0
340 -19 341 0
340 19 -341 0
-21 -22 -342 0
-21 22 342 0
21 -22 342 0
21 22 -342 0
-342 -23 -343 0
-342 23 343 0
342 -23 343 0
342 23 -343 0
-343 -25 -344 0
-343 25 344 0
343 -25 344 0
343 25 -344 0
-344 -27 -345 0
-344 27 345 0
344 -27 345 0
344 27 -345 0
-345 -29 -346 0
-345 29 346 0
345 -29 346 0
345 29 -346 0
-346 -31 -347 0
-346 31 347 0
346 -31 347 0
346 31 -347 0
-347 -32 -348 0
-347 32 348 0
347 -32 348 0
347 32 -348 0
-348 -33 -349 0
-348 33 349 0
348 -33 349 0
348 33 -349 0
-349 -35 -350 0
-349 35 350 0
349 -35 350 0
349 35 -350 0
-350 -37 -351 0
-350 37 351 0
350 -37 351 0
350 37 -351 0
-351 -39 -352 0
-351 39 352 0
351 -39 352 0
351 39 -352 0
341 352 0
-11 -14 -353 0
-11 14 353 0
11 -14 353 0
11 14 -353 0
-353 -16 -354 0
-353 16 354 0
353 -16 354 0
353 16 -354 0
-354 -17 -355 0
-354 17 355 0
354 -17 355 0
354 17 -355 0
-355 -19 -356 0
-355 19 356 0
355 -19 356 0
355 19 -356 0
-1 -4 -357 0
-1 4 357 0
1 -4 357 0
1 4 -357 0
-357 -6 -358 0
-357 6 358 0
357 -6 358 0
357 6 -358 0
-358 -7 -359 0
-358 7 359 0
358 -7 359 0
358 7 -359 0
-359 -9 -360 0
-359 9 360 0
359 -9 360 0
359 9 -360 0
-360 -21 -361 0
-360 21 361 0
360 -21 361 0
360 21 -361 0
-361 -24 -362 0
-361 24 362 0
361 -24 362 0
361 24 -362 0
-362 -26 -363 0
-362 26 363 0
362 -26 363 0
362 26 -363 0
-363 -27 -364 0
-363 27 364 0
363 -27 364 0
363 27 -364 0
-364 -29 -365 0
-364 29 365 0
364 -29 365 0
364 29 -365 0
356 365 0
-3 -4 -366 0
-3 4 366 0
3 -4 366 0
3 4 -366 0
-366 -6 -367 0
-366 6 367 0
366 -6 367 0
366 6 -367 0
-367 -7 -368 0
-367 7 368 0
367 -7 368 0
367 7 -368 0
-368 -9 -369 0
-368 9 369 0
368 -9 369 0
368 9 -369 0
-369 -13 -370 0
-369 13 370 0
369 -13 370 0
369 13 -370 0
-370 -14 -371 0
-370 14 371 0
370 -14 371 0
370 14 -371 0
-371 -16 -372 0
-371 16 372 0
371 -16 372 0
371 16 -372 0
-372 -17 -373 0
-372 17 373 0
372 -17 373 0
372 17 -373 0
-373 -19 -374 0
-373 19 374 0
373 -19 374 0
373 19 -374 0
-33 -34 -375 0
-33 34 375 0
33 -34 375 0
33 34 -375 0
-375 -36 -376 0
-375 36 376 0
375 -36 376 0
375 36 -376 0
-376 -37 -377 0
-376 37 377 0
376 -37 377 0
376 37 -377 0
-377 -39 -378 0
-377 39 378 0
377 -39 378 0
377 39 -378 0
374 378 0
-2 -5 -379 0
-2 5 379 0
2 -5 379 0
2 5 -379 0
-379 -6 -380 0
-379 6 380 0
379 -6 380 0
379 6 -380 0
-380 -7 -381 0
-380 7 381 0
380 -7 381 0
380 7 -381 0
-381 -9 -382 0
-381 9 382 0
381 -9 382 0
381 9 -382 0
-382 -12 -383 0
-382 12 383 0
382 -12 383 0
382 12 -383 0
-383 -15 -384 0
-383 15 384 0
383 -15 384 0
383 15 -384 0
-384 -16 -385 0
-384 16 385 0
384 -16 385 0
384 16 -385 0
-385 -17 -386 0
-385 17 386 0
385 -17 386 0
385 17 -386 0
-386 -19 -387 0
-386 19 387 0
386 -19 387 0
386 19 -387 0
-22 -25 -388 0
-22 25 388 0
22 -25 388 0
22 25 -388 0
-388 -26 -389 0
-388 26 389 0
388 -26 389 0
388 26 -389 0
-389 -27 -390 0
-389 27 390 0
389 -27 390 0
389 27 -390 0
-390 -29 -391 0
-390 29 391 0
390 -29 391 0
390 29 -391 0
387 391 0
-11 -13 -392 0
-11 13 392 0
11 -13 392 0
11 13 -392 0
-392 -14 -393 0
-392 14 393 0
392 -14 393 0
392 14 -393 0
-393 -15 -394 0
-393 15 394 0
393 -15 394 0
393 15 -394 0
-394 -16 -395 0
-394 16 395 0
394 -16 395 0
394 16 -395 0
-395 -17 -396 0
-395 17 396 0
395 -17 396 0
395 17 -396 0
-396 -19 -397 0
-396 19 397 0
396 -19 397 0
396 19 -397 0
-1 -3 -398 0
-1 3 398 0
1 -3 398 0
1 3 -398 0
-398 -4 -399 0
-398 4 399 0
398 -4 399 0
398 4 -399 0
-399 -5 -400 0
-399 5 400 0
399 -5 400 0
399 5 -400 0
-400 -6 -401 0
-400 6 401 0
400 -6 401 0
400 6 -401 0
-401 -7 -402 0
-401 7 402 0
401 -7 402 0
401 7 -402 0
-402 -9 -403 0
-402 9 403 0
402 -9 403 0
402 9 -403 0
-403 -21 -404 0
-403 21 404 0
403 -21 404 0
403 21 -404 0
-404 -23 -405 0
-404 23 405 0
404 -23 405 0
404 23 -405 0
-405 -24 -406 0
-405 24 406 0
405 -24 406 0
405 24 -406 0
-406 -25 -407 0
-406 25 407 0
406 -25 407 0
406 25 -407 0
-407 -26 -408 0
-407 26 408 0
407 -26 408 0
407 26 -408 0
-408 -27 -409 0
-408 27 409 0
408 -27 409 0
408 27 -409 0
-409 -29 -410 0
-409 29 410 0
409 -29 410 0
409 29 -410 0
-410 -31 -411 0
-410 31 411 0
410 -31 411 0
410 31 -411 0
-411 -33 -412 0
-411 33 412 0
411 -33 412 0
411 33 -412 0
-412 -34 -413 0
-412 34 413 0
412 -34 413 0
412 34 -413 0
-413 -35 -414 0
-413 35 414 0
413 -35 414 0
413 35 -414 0
-414 -36 -415 0
-414 36 415 0
414 -36 415 0
414 36 -415 0
-415 -37 -416 0
-415 37 416 0
415 -37 416 0
415 37 -416 0
-416 -39 -417 0
-416 39 417 0
416 -39 417 0
416 39 -417 0
397 417 0
-11 -12 -418 0
-11 12 418 0
11 -12 418 0
11 12 -418 0
-418 -13 -419 0
-418 13 419 0
418 -13 419 0
418 13 -419 0
-419 -15 -420 0
-419 15 420 0
419 -15 420 0
419 15 -420 0
-420 -18 -421 0
-420 18 421 0
420 -18 421 0
420 18 -421 0
-421 -19 -422 0
-421 19 422 0
421 -19 422 0
421 19 -422 0
-1 -2 -423 0
-1 2 423 0
1 -2 423 0
1 2 -423 0
-423 -3 -424 0
-423 3 424 0
423 -3 424 0
423 3 -424 0
-424 -5 -425 0
-424 5 425 0
424 -5 425 0
424 5 -425 0
-425 -8 -426 0
-425 8 426 0
425 -8 426 0
425 8 -426 0
-426 -9 -427 0
-426 9 427 0
426 -9 427 0
426 9 -427 0
-427 -31 -428 0
-427 31 428 0
427 -31 428 0
427 31 -428 0
-428 -32 -429 0
-428 32 429 0
428 -32 429 0
428 32 -429 0
-429 -33 -430 0
-429 33 430 0
429 -33 430 0
429 33 -430 0
-430 -35 -431 0
-430 35 431 0
430 -35 431 0
430 35 -431 0
-431 -38 -432 0
-431 38 432 0
431 -38 432 0
431 38 -432 0
-432 -39 -433 0
-432 39 433 0
432 -39 433 0
432 39 -433 0
422 433 0
-3 -7 -434 0
-3 7 434 0
3 -7 434 0
3 7 -434 0
-434 -8 -435 0
-434 8 435 0
434 -8 435 0
434 8 -435 0
-435 -9 -436 0
-435 9 436 0
435 -9 436 0
435 9 -436 0
-436 -13 -437 0
-436 13 437 0
436 -13 437 0
436 13 -437 0
-437 -17 -438 0
-437 17 438 0
437 -17 438 0
437 17 -438 0
-438 -18 -439 0
-438 18 439 0
438 -18 439 0
438 18 -439 0
-439 -19 -440 0
-439 19 440 0
439 -19 440 0
439 19 -440 0
-3 -7 -441 0
-3 7 441 0
3 -7 441 0
3 7 -441 0
-441 -8 -442 0
-441 8 442 0
441 -8 442 0
441 8 -442 0
-442 -9 -443 0
-442 9 443 0
442 -9 443 0
442 9 -443 0
-443 -23 -444 0
-443 23 444 0
443 -23 444 0
443 23 -444 0
-444 -27 -445 0
-444 27 445 0
444 -27 445 0
444 27 -445 0
-445 -28 -446 0
-445 28 446 0
445 -28 446 0
445 28 -446 0
-446 -29 -447 0
-446 29 447 0
446 -29 447 0
446 29 -447 0
440 447 0
-12 -13 -448 0
-12 13 448 0
12 -13 448 0
12 13 -448 0
-448 -14 -449 0
-448 14 449 0
448 -14 449 0
448 14 -449 0
-449 -15 -450 0
-449 15 450 0
449 -15 450 0
449 15 -450 0
-450 -17 -451 0
-450 17 451 0
450 -17 451 0
450 17 -451 0
-451 -18 -452 0
-451 18 452 0
451 -18 452 0
451 18 -452 0
-452 -19 -453 0
-452 19 453 0
452 -19 453 0
452 19 -453 0
-22 -23 -454 0
-22 23 454 0
22 -23 454 0
22 23 -454 0
-454 -24 -455 0
-454 24 455 0
454 -24 455 0
454 24 -455 0
-455 -25 -456 0
-455 25 456 0
455 -25 456 0
455 25 -456 0
-456 -27 -457 0
-456 27 457 0
456 -27 457 0
456 27 -457 0
-457 -28 -458 0
-457 28 458 0
457 -28 458 0
457 28 -458 0
-458 -29 -459 0
-458 29 459 0
458 -29 459 0
458 29 -459 0
453 459 0
-12 -13 -460 0
-12 13 460 0
12 -13 460 0
12 13 -460 0
-460 -15 -461 0
-460 15 461 0
460 -15 461 0
460 15 -461 0
-461 -16 -462 0
-461 16 462 0
461 -16 462 0
461 16 -462 0
-462 -17 -463 0
-462 17 463 0
462 -17 463 0
462 17 -463 0
-463 -18 -464 0
-463 18 464 0
463 -18 464 0
463 18 -464 0
-464 -19 -465 0
-464 19 465 0
464 -19 465 0
464 19 -465 0
-32 -33 -466 0
-32 33 466 0
32 -33 466 0
32 33 -466 0
-466 -35 -467 0
-466 35 467 0
466 -35 467 0
466 35 -467 0
-467 -36 -468 0
-467 36 468 0
467 -36 468 0
467 36 -468 0
-468 -37 -469 0
-468 37 469 0
468 -37 469 0
468 37 -469 0
-469 -38 -470 0
-469 38 470 0
469 -38 470 0
469 38 -470 0
-470 -39 -471 0
-470 39 471 0
470 -39 471 0
470 39 -471 0
465 471 0
-2 -3 -472 0
-2 3 472 0
2 -3 472 0
2 3 -472 0
-472 -10 -473 0
-472 10 473 0
472 -10 473 0
472 10 -473 0
-473 -12 -474 0
-473 12 474 0
473 -12 474 0
473 12 -474 0
-474 -13 -475 0
-474 13 475 0
474 -13 475 0
474 13 -475 0
-475 -20 -476 0
-475 20 476 0
475 -20 476 0
475 20 -476 0
-2 -3 -477 0
-2 3 477 0
2 -3 477 0
2 3 -477 0
-477 -10 -478 0
-477 10 478 0
477 -10 478 0
477 10 -478 0
-478 -32 -479 0
-478 32 479 0
478 -32 479 0
478 32 -479 0
-479 -33 -480 0
-479 33 480 0
479 -33 480 0
479 33 -480 0
-480 -40 -481 0
-480 40 481 0
480 -40 481 0
480 40 -481 0
476 481 0
-11 -14 -482 0
-11 14 482 0
11 -14 482 0
11 14 -482 0
-482 -20 -483 0
-482 20 483 0
482 -20 483 0
482 20 -483 0
-21 -24 -484 0
-21 24 484 0
21 -24 484 0
21 24 -484 0
-484 -30 -485 0
-484 30 485 0
484 -30 485 0
484 30 -485 0
-485 -31 -486 0
-485 31 486 0
485 -31 486 0
485 31 -486 0
-486 -34 -487 0
-486 34 487 0
486 -34 487 0
486 34 -487 0
-487 -40 -488 0
-487 40 488 0
487 -40 488 0
487 40 -488 0
483 488 0
-4 -5 -489 0
-4 5 489 0
4 -5 489 0
4 5 -489 0
-489 -10 -490 0
-489 10 490 0
489 -10 490 0
489 10 -490 0
-490 -14 -491 0
-490 14 491 0
490 -14 491 0
490 14 -491 0
-491 -15 -492 0
-491 15 492 0
491 -15 492 0
491 15 -492 0
-492 -20 -493 0
-492 20 493 0
492 -20 493 0
492 20 -493 0
-4 -5 -494 0
-4 5 494 0
4 -5 494 0
4 5 -494 0
-494 -10 -495 0
-494 10 495 0
494 -10 495 0
494 10 -495 0
-495 -24 -496 0
-495 24 496 0
495 -24 496 0
495 24 -496 0
-496 -25 -497 0
-496 25 497 0
496 -25 497 0
496 25 -497 0
-497 -30 -498 0
-497 30 498 0
497 -30 498 0
497 30 -498 0
493 498 0
-11 -13 -499 0
-11 13 499 0
11 -13 499 0
11 13 -499 0
-499 -15 -500 0
-499 15 500 0
499 -15 500 0
499 15 -500 0
-500 -16 -501 0
-500 16 501 0
500 -16 501 0
500 16 -501 0
-501 -20 -502 0
-501 20 502 0
501 -20 502 0
501 20 -502 0
-21 -23 -503 0
-21 23 503 0
21 -23 503 0
21 23 -503 0
-503 -25 -504 0
-503 25 504 0
503 -25 504 0
503 25 -504 0
-504 -26 -505 0
-504 26 505 0
504 -26 505 0
504 26 -505 0
-505 -30 -506 0
-505 30 506 0
505 -30 506 0
505 30 -506 0
502 506 0
-3 -4 -507 0
-3 4 507 0
3 -4 507 0
3 4 -507 0
-507 -7 -508 0
-507 7 508 0
507 -7 508 0
507 7 -508 0
-508 -10 -509 0
-508 10 509 0
508 -10 509 0
508 10 -509 0
-509 -13 -510 0
-509 13 510 0
509 -13 510 0
509 13 -510 0
-510 -14 -511 0
-510 14 511 0
510 -14 511 0
510 14 -511 0
-511 -17 -512 0
-511 17 512 0
511 -17 512 0
511 17 -512 0
-512 -20 -513 0
-512 20 513 0
512 -20 513 0
512 20 -513 0
-3 -4 -514 0
-3 4 514 0
3 -4 514 0
3 4 -514 0
-514 -7 -515 0
-514 7 515 0
514 -7 515 0
514 7 -515 0
-515 -10 -516 0
-515 10 516 0
515 -10 516 0
515 10 -516 0
-516 -23 -517 0
-516 23 517 0
516 -23 517 0
516 23 -517 0
-517 -24 -518 0
-517 24 518 0
517 -24 518 0
517 24 -518 0
-518 -27 -519 0
-518 27 519 0
518 -27 519 0
518 27 -519 0
-519 -30 -520 0
-519 30 520 0
519 -30 520 0
519 30 -520 0
-520 -33 -521 0
-520 33 521 0
520 -33 521 0
520 33 -521 0
-521 -34 -522 0
-521 34 522 0
521 -34 522 0
521 34 -522 0
-522 -37 -523 0
-522 37 523 0
522 -37 523 0
522 37 -523 0
-523 -40 -524 0
-523 40 524 0
523 -40 524 0
523 40 -524 0
513 524 0
-13 -14 -525 0
-13 14 525 0
13 -14 525 0
13 14 -525 0
-525 -15 -526 0
-525 15 526 0
525 -15 526 0
525 15 -526 0
-526 -16 -527 0
-526 16 527 0
526 -16 527 0
526 16 -527 0
-527 -17 -528 0
-527 17 528 0
527 -17 528 0
527 17 -528 0
-528 -20 -529 0
-528 20 529 0
528 -20 529 0
528 20 -529 0
-33 -34 -530 0
-33 34 530 0
33 -34 530 0
33 34 -530 0
-530 -35 -531 0
-530 35 531 0
530 -35 531 0
530 35 -531 0
-531 -36 -532 0
-531 36 532 0
531 -36 532 0
531 36 -532 0
-532 -37 -533 0
-532 37 533 0
532 -37 533 0
532 37 -533 0
-533 -40 -534 0
-533 40 534 0
533 -40 534 0
533 40 -534 0
529 534 0
-2 -3 -535 0
-2 3 535 0
2 -3 535 0
2 3 -535 0
-535 -4 -536 0
-535 4 536 0
535 -4 536 0
535 4 -536 0
-536 -6 -537 0
-536 6 537 0
536 -6 537 0
536 6 -537 0
-537 -8 -538 0
-537 8 538 0
537 -8 538 0
537 8 -538 0
-538 -10 -539 0
-538 10 539 0
538 -10 539 0
538 10 -539 0
-539 -12 -540 0
-539 12 540 0
539 -12 540 0
539 12 -540 0
-540 -13 -541 0
-540 13 541 0
540 -13 541 0
540 13 -541 0
-541 -14 -542 0
-541 14 542 0
541 -14 542 0
541 14 -542 0
-542 -16 -543 0
-542 16 543 0
542 -16 543 0
542 16 -543 0
-543 -18 -544 0
-543 18 544 0
543 -18 544 0
543 18 -544 0
-544 -20 -545 0
-544 20 545 0
544 -20 545 0
544 20 -545 0
-22 -23 -546 0
-22 23 546 0
22 -23 546 0
22 23 -546 0
-546 -24 -547 0
-546 24 547 0
546 -24 547 0
546 24 -547 0
-547 -26 -548 0
-547 26 548 0
547 -26 548 0
547 26 -548 0
-548 -28 -549 0
-548 28 549 0
548 -28 549 0
548 28 -549 0
-549 -30 -550 0
-549 30 550 0
549 -30 550 0
549 30 -550 0
-550 -32 -551 0
-550 32 551 0
550 -32 551 0
550 32 -551 0
-551 -33 -552 0
-551 33 552 0
551 -33 552 0
551 33 -552 0
-552 -34 -553 0
-552 34 553 0
552 -34 553 0
552 34 -553 0
-553 -36 -554 0
-553 36 554 0
553 -36 554 0
553 36 -554 0
-554 -38 -555 0
-554 38 555 0
554 -38 555 0
554 38 -555 0
-555 -40 -556 0
-555 40 556 0
555 -40 556 0
555 40 -556 0
545 556 0
-12 -13 -557 0
-12 13 557 0
12 -13 557 0
12 13 -557 0
-557 -14 -558 0
-557 14 558 0
557 -14 558 0
557 14 -558 0
-558 -15 -559 0
-558 15 559 0
558 -15 559 0
558 15 -559 0
-559 -16 -560 0
-559 16 560 0
559 -16 560 0
559 16 -560 0
-560 -18 -561 0
-560 18 561 0
560 -18 561 0
560 18 -561 0
-561 -20 -562 0
-561 20 562 0
561 -20 562 0
561 20 -562 0
-2 -3 -563 0
-2 3 563 0
2 -3 563 0
2 3 -563 0
-563 -4 -564 0
-563 4 564 0
563 -4 564 0
563 4 -564 0
-564 -5 -565 0
-564 5 565 0
564 -5 565 0
564 5 -565 0
-565 -6 -566 0
-565 6 566 0
565 -6 566 0
565 6 -566 0
-566 -8 -567 0
-566 8 567 0
566 -8 567 0
566 8 -567 0
-567 -10 -568 0
-567 10 568 0
567 -10 568 0
567 10 -568 0
-568 -32 -569 0
-568 32 569 0
568 -32 569 0
568 32 -569 0
-569 -33 -570 0
-569 33 570 0
569 -33 570 0
569 33 -570 0
-570 -34 -571 0
-570 34 571 0
570 -34 571 0
570 34 -571 0
-571 -35 -572 0
-571 35 572 0
571 -35 572 0
571 35 -572 0
-572 -36 -573 0
-572 36 573 0
572 -36 573 0
572 36 -573 0
-573 -38 -574 0
-573 38 574 0
573 -38 574 0
573 38 -574 0
-574 -40 -575 0
-574 40 575 0
574 -40 575 0
574 40 -575 0
562 575 0
-1 -7 -576 0
-1 7 576 0
1 -7 576 0
1 7 -576 0
-576 -8 -577 0
-576 8 577 0
576 -8 577 0
576 8 -577 0
-577 -10 -578 0
-577 10 578 0
577 -10 578 0
577 10 -578 0
-578 -11 -579 0
-578 11 579 0
578 -11 579 0
578 11 -579 0
-579 -17 -580 0
-579 17 580 0
579 -17 580 0
579 17 -580 0
-580 -18 -581 0
-580 18 581 0
580 -18 581 0
580 18 -581 0
-581 -20 -582 0
-581 20 582 0
581 -20 582 0
581 20 -582 0
-31 -37 -583 0
-31 37 583 0
31 -37 583 0
31 37 -583 0
-583 -38 -584 0
-583 38 584 0
583 -38 584 0
583 38 -584 0
-584 -40 -585 0
-584 40 585 0
584 -40 585 0
584 40 -585 0
582 585 0
-11 -12 -586 0
-11 12 586 0
11 -12 586 0
11 12 -586 0
-586 -14 -587 0
-586 14 587 0
586 -14 587 0
586 14 -587 0
-587 -17 -588 0
-587 17 588 0
587 -17 588 0
587 17 -588 0
-588 -18 -589 0
-588 18 589 0
588 -18 589 0
588 18 -589 0
-589 -20 -590 0
-589 20 590 0
589 -20 590 0
589 20 -590 0
-1 -2 -591 0
-1 2 591 0
1 -2 591 0
1 2 -591 0
-591 -4 -592 0
-591 4 592 0
591 -4 592 0
591 4 -592 0
-592 -7 -593 0
-592 7 593 0
592 -7 593 0
592 7 -593 0
-593 -8 -594 0
-593 8 594 0
593 -8 594 0
593 8 -594 0
-594 -10 -595 0
-594 10 595 0
594 -10 595 0
594 10 -595 0
-595 -21 -596 0
-595 21 596 0
595 -21 596 0
595 21 -596 0
-596 -22 -597 0
-596 22 597 0
596 -22 597 0
596 22 -597 0
-597 -24 -598 0
-597 24 598 0
597 -24 598 0
597 24 -598 0
-598 -27 -599 0
-598 27 599 0
598 -27 599 0
598 27 -599 0
-599 -28 -600 0
-599 28 600 0
599 -28 600 0
599 28 -600 0
-600 -30 -601 0
-600 30 601 0
600 -30 601 0
600 30 -601 0
590 601 0
-11 -12 -602 0
-11 12 602 0
11 -12 602 0
11 12 -602 0
-602 -16 -603 0
-602 16 603 0
602 -16 603 0
602 16 -603 0
-603 -17 -604 0
-603 17 604 0
603 -17 604 0
603 17 -604 0
-604 -18 -605 0
-604 18 605 0
604 -18 605 0
604 18 -605 0
-605 -20 -606 0
-605 20 606 0
605 -20 606 0
605 20 -606 0
-1 -2 -607 0
-1 2 607 0
1 -2 607 0
1 2 -607 0
-607 -6 -608 0
-607 6 608 0
607 -6 608 0
607 6 -608 0
-608 -7 -609 0
-608 7 609 0
608 -7 609 0
608 7 -609 0
-609 -8 -610 0
-609 8 610 0
609 -8 610 0
609 8 -610 0
-610 -10 -611 0
-610 10 611 0
610 -10 611 0
610 10 -611 0
-611 -21 -612 0
-611 21 612 0
611 -21 612 0
611 21 -612 0
-612 -22 -613 0
-612 22 613 0
612 -22 613 0
612 22 -613 0
-613 -26 -614 0
-613 26 614 0
613 -26 614 0
613 26 -614 0
-614 -27 -615 0
-614 27 615 0
614 -27 615 0
614 27 -615 0
-615 -28 -616 0
-615 28 616 0
615 -28 616 0
615 28 -616 0
-616 -30 -617 0
-616 30 617 0
616 -30 617 0
616 30 -617 0
-617 -31 -618 0
-617 31 618 0
617 -31 618 0
617 31 -618 0
-618 -32 -619 0
-618 32 619 0
618 -32 619 0
618 32 -619 0
-619 -36 -620 0
-619 36 620 0
619 -36 620 0
619 36 -620 0
-620 -37 -621 0
-620 37 621 0
620 -37 621 0
620 37 -621 0
-621 -38 -622 0
-621 38 622 0
621 -38 622 0
621 38 -622 0
-622 -40 -623 0
-622 40 623 0
622 -40 623 0
622 40 -623 0
606 623 0
-3 -6 -624 0
-3 6 624 0
3 -6 624 0
3 6 -624 0
-624 -7 -625 0
-624 7 625 0
624 -7 625 0
624 7 -625 0
-625 -8 -626 0
-625 8 626 0
625 -8 626 0
625 8 -626 0
-626 -10 -627 0
-626 10 627 0
626 -10 627 0
626 10 -627 0
-627 -13 -628 0
-627 13 628 0
627 -13 628 0
627 13 -628 0
-628 -16 -629 0
-628 16 629 0
628 -16 629 0
628 16 -629 0
-629 -17 -630 0
-629 17 630 0
629 -17 630 0
629 17 -630 0
-630 -18 -631 0
-630 18 631 0
630 -18 631 0
630 18 -631 0
-631 -20 -632 0
-631 20 632 0
631 -20 632 0
631 20 -632 0
-23 -26 -633 0
-23 26 633 0
23 -26 633 0
23 26 -633 0
-633 -27 -634 0
-633 27 634 0
633 -27 634 0
633 27 -634 0
-634 -28 -635 0
-634 28 635 0
634 -28 635 0
634 28 -635 0
-635 -30 -636 0
-635 30 636 0
635 -30 636 0
635 30 -636 0
632 636 0
-11 -19 -637 0
-11 19 637 0
11 -19 637 0
11 19 -637 0
-637 -20 -638 0
-637 20 638 0
637 -20 638 0
637 20 -638 0
-21 -29 -639 0
-21 29 639 0
21 -29 639 0
21 29 -639 0
-639 -30 -640 0
-639 30 640 0
639 -30 640 0
639 30 -640 0
-640 -31 -641 0
-640 31 641 0
640 -31 641 0
640 31 -641 0
-641 -39 -642 0
-641 39 642 0
641 -39 642 0
641 39 -642 0
-642 -40 -643 0
-642 40 643 0
642 -40 643 0
642 40 -643 0
638 643 0
-1 -3 -644 0
-1 3 644 0
1 -3 644 0
1 3 -644 0
-644 -9 -645 0
-644 9 645 0
644 -9 645 0
644 9 -645 0
-645 -10 -646 0
-645 10 646 0
645 -10 646 0
645 10 -646 0
-646 -11 -647 0
-646 11 647 0
646 -11 647 0
646 11 -647 0
-647 -13 -648 0
-647 13 648 0
647 -13 648 0
647 13 -648 0
-648 -19 -649 0
-648 19 649 0
648 -19 649 0
648 19 -649 0
-649 -20 -650 0
-649 20 650 0
649 -20 650 0
649 20 -650 0
-1 -3 -651 0
-1 3 651 0
1 -3 651 0
1 3 -651 0
-651 -9 -652 0
-651 9 652 0
651 -9 652 0
651 9 -652 0
-652 -10 -653 0
-652 10 653 0
652 -10 653 0
652 10 -653 0
-653 -31 -654 0
-653 31 654 0
653 -31 654 0
653 31 -654 0
-654 -33 -655 0
-654 33 655 0
654 -33 655 0
654 33 -655 0
-655 -39 -656 0
-655 39 656 0
655 -39 656 0
655 39 -656 0
-656 -40 -657 0
-656 40 657 0
656 -40 657 0
656 40 -657 0
650 657 0
-11 -14 -658 0
-11 14 658 0
11 -14 658 0
11 14 -658 0
-658 -16 -659 0
-658 16 659 0
658 -16 659 0
658 16 -659 0
-659 -19 -660 0
-659 19 660 0
659 -19 660 0
659 19 -660 0
-660 -20 -661 0
-660 20 661 0
660 -20 661 0
660 20 -661 0
-1 -4 -662 0
-1 4 662 0
1 -4 662 0
1 4 -662 0
-662 -6 -663 0
-662 6 663 0
662 -6 663 0
662 6 -663 0
-663 -9 -664 0
-663 9 664 0
663 -9 664 0
663 9 -664 0
-664 -10 -665 0
-664 10 665 0
664 -10 665 0
664 10 -665 0
-665 -31 -666 0
-665 31 666 0
665 -31 666 0
665 31 -666 0
-666 -34 -667 0
-666 34 667 0
666 -34 667 0
666 34 -667 0
-667 -36 -668 0
-667 36 668 0
667 -36 668 0
667 36 -668 0
-668 -39 -669 0
-668 39 669 0
668 -39 669 0
668 39 -669 0
-669 -40 -670 0
-669 40 670 0
669 -40 670 0
669 40 -670 0
661 670 0
-2 -4 -671 0
-2 4 671 0
2 -4 671 0
2 4 -671 0
-671 -6 -672 0
-671 6 672 0
671 -6 672 0
671 6 -672 0
-672 -7 -673 0
-672 7 673 0
672 -7 673 0
672 7 -673 0
-673 -9 -674 0
-673 9 674 0
673 -9 674 0
673 9 -674 0
-674 -10 -675 0
-674 10 675 0
674 -10 675 0
674 10 -675 0
-675 -12 -676 0
-675 12 676 0
675 -12 676 0
675 12 -676 0
-676 -14 -677 0
-676 14 677 0
676 -14 677 0
676 14 -677 0
-677 -16 -678 0
-677 16 678 0
677 -16 678 0
677 16 -678 0
-678 -17 -679 0
-678 17 679 0
678 -17 679 0
678 17 -679 0
-679 -19 -680 0
-679 19 680 0
679 -19 680 0
679 19 -680 0
-680 -20 -681 0
-680 20 681 0
680 -20 681 0
680 20 -681 0
-2 -4 -682 0
-2 4 682 0
2 -4 682 0
2 4 -682 0
-682 -6 -683 0
-682 6 683 0
682 -6 683 0
682 6 -683 0
-683 -7 -684 0
-683 7 684 0
683 -7 684 0
683 7 -684 0
-684 -9 -685 0
-684 9 685 0
684 -9 685 0
684 9 -685 0
-685 -10 -686 0
-685 10 686 0
685 -10 686 0
685 10 -686 0
-686 -22 -687 0
-686 22 687 0
686 -22 687 0
686 22 -687 0
-687 -24 -688 0
-687 24 688 0
687 -24 688 0
687 24 -688 0
-688 -26 -689 0
-688 26 689 0
688 -26 689 0
688 26 -689 0
-689 -27 -690 0
-689 27 690 0
689 -27 690 0
689 27 -690 0
-690 -29 -691 0
-690 29 691 0
690 -29 691 0
690 29 -691 0
-691 -30 -692 0
-691 30 692 0
691 -30 692 0
691 30 -692 0
-692 -32 -693 0
-692 32 693 0
692 -32 693 0
692 32 -693 0
-693 -34 -694 0
-693 34 694 0
693 -34 694 0
693 34 -694 0
-694 -36 -695 0
-694 36 695 0
694 -36 695 0
694 36 -695 0
-695 -37 -696 0
-695 37 696 0
695 -37 696 0
695 37 -696 0
-696 -39 -697 0
-696 39 697 0
696 -39 697 0
696 39 -697 0
-697 -40 -698 0
-697 40 698 0
697 -40 698 0
697 40 -698 0
681 698 0
-12 -14 -699 0
-12 14 699 0
12 -14 699 0
12 14 -699 0
-699 -18 -700 0
-699 18 700 0
699 -18 700 0
699 18 -700 0
-700 -19 -701 0
-700 19 701 0
700 -19 701 0
700 19 -701 0
-701 -20 -702 0
-701 20 702 0
701 -20 702 0
701 20 -702 0
-32 -34 -703 0
-32 34 703 0
32 -34 703 0
32 34 -703 0
-703 -38 -704 0
-703 38 704 0
703 -38 704 0
703 38 -704 0
-704 -39 -705 0
-704 39 705 0
704 -39 705 0
704 39 -705 0
-705 -40 -706 0
-705 40 706 0
705 -40 706 0
705 40 -706 0
702 706 0
-2 -3 -707 0
-2 3 707 0
2 -3 707 0
2 3 -707 0
-707 -5 -708 0
-707 5 708 0
707 -5 708 0
707 5 -708 0
-708 -8 -709 0
-708 8 709 0
708 -8 709 0
708 8 -709 0
-709 -9 -710 0
-709 9 710 0
709 -9 710 0
709 9 -710 0
-710 -10 -711 0
-710 10 711 0
710 -10 711 0
710 10 -711 0
-711 -12 -712 0
-711 12 712 0
711 -12 712 0
711 12 -712 0
-712 -13 -713 0
-712 13 713 0
712 -13 713 0
712 13 -713 0
-713 -15 -714 0
-713 15 714 0
713 -15 714 0
713 15 -714 0
-714 -18 -715 0
-714 18 715 0
714 -18 715 0
714 18 -715 0
-715 -19 -716 0
-715 19 716 0
715 -19 716 0
715 19 -716 0
-716 -20 -717 0
-716 20 717 0
716 -20 717 0
716 20 -717 0
-22 -23 -718 0
-22 23 718 0
22 -23 718 0
22 23 -718 0
-718 -25 -719 0
-718 25 719 0
718 -25 719 0
718 25 -719 0
-719 -28 -720 0
-719 28 720 0
719 -28 720 0
719 28 -720 0
-720 -29 -721 0
-720 29 721 0
720 -29 721 0
720 29 -721 0
-721 -30 -722 0
-721 30 722 0
721 -30 722 0
721 30 -722 0
717 722 0
-12 -13 -723 0
-12 13 723 0
12 -13 723 0
12 13 -723 0
-723 -14 -724 0
-723 14 724 0
723 -14 724 0
723 14 -724 0
-724 -15 -725 0
-724 15 725 0
724 -15 725 0
724 15 -725 0
-725 -18 -726 0
-725 18 726 0
725 -18 726 0
725 18 -726 0
-726 -19 -727 0
-726 19 727 0
726 -19 727 0
726 19 -727 0
-727 -20 -728 0
-727 20 728 0
727 -20 728 0
727 20 -728 0
-2 -3 -729 0
-2 3 729 0
2 -3 729 0
2 3 -729 0
-729 -4 -730 0
-729 4 730 0
729 -4 730 0
729 4 -730 0
-730 -5 -731 0
-730 5 731 0
730 -5 731 0
730 5 -731 0
-731 -8 -732 0
-731 8 732 0
731 -8 732 0
731 8 -732 0
-732 -9 -733 0
-732 9 733 0
732 -9 733 0
732 9 -733 0
-733 -10 -734 0
-733 10 734 0
733 -10 734 0
733 10 -734 0
-734 -22 -735 0
-734 22 735 0
734 -22 735 0
734 22 -735 0
-735 -23 -736 0
-735 23 736 0
735 -23 736 0
735 23 -736 0
-736 -24 -737 0
-736 24 737 0
736 -24 737 0
736 24 -737 0
-737 -25 -738 0
-737 25 738 0
737 -25 738 0
737 25 -738 0
-738 -28 -739 0
-738 28 739 0
738 -28 739 0
738 28 -739 0
-739 -29 -740 0
-739 29 740 0
739 -29 740 0
739 29 -740 0
-740 -30 -741 0
-740 30 741 0
740 -30 741 0
740 30 -741 0
-741 -32 -742 0
-741 32 742 0
741 -32 742 0
741 32 -742 0
-742 -33 -743 0
-742 33 743 0
742 -33 743 0
742 33 -743 0
-743 -34 -744 0
-743 34 744 0
743 -34 744 0
743 34 -744 0
-744 -35 -745 0
-744 35 745 0
744 -35 745 0
744 35 -745 0
-745 -38 -746 0
-745 38 746 0
745 -38 746 0
745 38 -746 0
-746 -39 -747 0
-746 39 747 0
746 -39 747 0
746 39 -747 0
-747 -40 -748 0
-747 40 748 0
747 -40 748 0
747 40 -748 0
728 748 0
-12 -16 -749 0
-12 16 749 0
12 -16 749 0
12 16 -749 0
-749 -18 -750 0
-749 18 750 0
749 -18 750 0
749 18 -750 0
-750 -19 -751 0
-750 19 751 0
750 -19 751 0
750 19 -751 0
-751 -20 -752 0
-751 20 752 0
751 -20 752 0
751 20 -752 0
-2 -6 -753 0
-2 6 753 0
2 -6 753 0
2 6 -753 0
-753 -8 -754 0
-753 8 754 0
753 -8 754 0
753 8 -754 0
-754 -9 -755 0
-754 9 755 0
754 -9 755 0
754 9 -755 0
-755 -10 -756 0
-755 10 756 0
755 -10 756 0
755 10 -756 0
-756 -22 -757 0
-756 22 757 0
756 -22 757 0
756 22 -757 0
-757 -26 -758 0
-757 26 758 0
757 -26 758 0
757 26 -758 0
-758 -28 -759 0
-758 28 759 0
758 -28 759 0
758 28 -759 0
-759 -29 -760 0
-759 29 760 0
759 -29 760 0
759 29 -760 0
-760 -30 -761 0
-760 30 761 0
760 -30 761 0
760 30 -761 0
752 761 0
-1 -3 -762 0
-1 3 762 0
1 -3 762 0
1 3 -762 0
-762 -4 -763 0
-762 4 763 0
762 -4 763 0
762 4 -763 0
-763 -6 -764 0
-763 6 764 0
763 -6 764 0
763 6 -764 0
-764 -8 -765 0
-764 8 765 0
764 -8 765 0
764 8 -765 0
-765 -9 -766 0
-765 9 766 0
765 -9 766 0
765 9 -766 0
-766 -10 -767 0
-766 10 767 0
766 -10 767 0
766 10 -767 0
-767 -11 -768 0
-767 11 768 0
767 -11 768 0
767 11 -768 0
-768 -13 -769 0
-768 13 769 0
768 -13 769 0
768 13 -769 0
-769 -14 -770 0
-769 14 770 0
769 -14 770 0
769 14 -770 0
-770 -16 -771 0
-770 16 771 0
770 -16 771 0
770 16 -771 0
-771 -18 -772 0
-771 18 772 0
771 -18 772 0
771 18 -772 0
-772 -19 -773 0
-772 19 773 0
772 -19 773 0
772 19 -773 0
-773 -20 -774 0
-773 20 774 0
773 -20 774 0
773 20 -774 0
-31 -33 -775 0
-31 33 775 0
31 -33 775 0
31 33 -775 0
-775 -34 -776 0
-775 34 776 0
775 -34 776 0
775 34 -776 0
-776 -36 -777 0
-776 36 777 0
776 -36 777 0
776 36 -777 0
-777 -38 -778 0
-777 38 778 0
777 -38 778 0
777 38 -778 0
-778 -39 -779 0
-778 39 779 0
778 -39 779 0
778 39 -779 0
-779 -40 -780 0
-779 40 780 0
779 -40 780 0
779 40 -780 0
774 780 0
-3 -4 -781 0
-3 4 781 0
3 -4 781 0
3 4 -781 0
-781 -5 -782 0
-781 5 782 0
781 -5 782 0
781 5 -782 0
-782 -7 -783 0
-782 7 783 0
782 -7 783 0
782 7 -783 0
-783 -8 -784 0
-783 8 784 0
783 -8 784 0
783 8 -784 0
-784 -9 -785 0
-784 9 785 0
784 -9 785 0
784 9 -785 0
-785 -10 -786 0
-785 10 786 0
785 -10 786 0
785 10 -786 0
-786 -13 -787 0
-786 13 787 0
786 -13 787 0
786 13 -787 0
-787 -14 -788 0
-787 14 788 0
787 -14 788 0
787 14 -788 0
-788 -15 -789 0
-788 15 789 0
788 -15 789 0
788 15 -789 0
-789 -17 -790 0
-789 17 790 0
789 -17 790 0
789 17 -790 0
-790 -18 -791 0
-790 18 791 0
790 -18 791 0
790 18 -791 0
-791 -19 -792 0
-791 19 792 0
791 -19 792 0
791 19 -792 0
-792 -20 -793 0
-792 20 793 0
792 -20 793 0
792 20 -793 0
-3 -4 -794 0
-3 4 794 0
3 -4 794 0
3 4 -794 0
-794 -5 -795 0
-794 5 795 0
794 -5 795 0
794 5 -795 0
-795 -7 -796 0
-795 7 796 0
795 -7 796 0
795 7 -796 0
-796 -8 -797 0
-796 8 797 0
796 -8 797 0
796 8 -797 0
-797 -9 -798 0
-797 9 798 0
797 -9 798 0
797 9 -798 0
-798 -10 -799 0
-798 10 799 0
798 -10 799 0
798 10 -799 0
-799 -23 -800 0
-799 23 800 0
799 -23 800 0
799 23 -800 0
-800 -24 -801 0
-800 24 801 0
800 -24 801 0
800 24 -801 0
-801 -25 -802 0
-801 25 802 0
801 -25 802 0
801 25 -802 0
-802 -27 -803 0
-802 27 803 0
802 -27 803 0
802 27 -803 0
-803 -28 -804 0
-803 28 804 0
803 -28 804 0
803 28 -804 0
-804 -29 -805 0
-804 29 805 0
804 -29 805 0
804 29 -805 0
-805 -30 -806 0
-805 30 806 0
805 -30 806 0
805 30 -806 0
793 806 0
-11 -12 -807 0
-11 12 807 0
11 -12 807 0
11 12 -807 0
-807 -14 -808 0
-807 14 808 0
807 -14 808 0
807 14 -808 0
-808 -16 -809 0
-808 16 809 0
808 -16 809 0
808 16 -809 0
-809 -17 -810 0
-809 17 810 0
809 -17 810 0
809 17 -810 0
-810 -18 -811 0
-810 18 811 0
810 -18 811 0
810 18 -811 0
-811 -19 -812 0
-811 19 812 0
811 -19 812 0
811 19 -812 0
-812 -20 -813 0
-812 20 813 0
812 -20 813 0
812 20 -813 0
-21 -22 -814 0
-21 22 814 0
21 -22 814 0
21 22 -814 0
-814 -24 -815 0
-814 24 815 0
814 -24 815 0
814 24 -815 0
-815 -26 -816 0
-815 26 816 0
815 -26 816 0
815 26 -816 0
-816 -27 -817 0
-816 27 817 0
816 -27 817 0
816 27 -817 0
-817 -28 -818 0
-817 28 818 0
817 -28 818 0
817 28 -818 0
-818 -29 -819 0
-818 29 819 0
818 -29 819 0
818 29 -819 0
-819 -30 -820 0
-819 30 820 0
819 -30 820 0
819 30 -820 0
813 820 0
-1 -4 -821 0
-1 4 821 0
1 -4 821 0
1 4 -821 0
-821 -5 -822 0
-821 5 822 0
821 -5 822 0
821 5 -822 0
-822 -6 -823 0
-822 6 823 0
822 -6 823 0
822 6 -823 0
-823 -7 -824 0
-823 7 824 0
823 -7 824 0
823 7 -824 0
-824 -8 -825 0
-824 8 825 0
824 -8 825 0
824 8 -825 0
-825 -9 -826 0
-825 9 826 0
825 -9 826 0
825 9 -826 0
-826 -10 -827 0
-826 10 827 0
826 -10 827 0
826 10 -827 0
-827 -11 -828 0
-827 11 828 0
827 -11 828 0
827 11 -828 0
-828 -14 -829 0
-828 14 829 0
828 -14 829 0
828 14 -829 0
-829 -15 -830 0
-829 15 830 0
829 -15 830 0
829 15 -830 0
-830 -16 -831 0
-830 16 831 0
830 -16 831 0
830 16 -831 0
-831 -17 -832 0
-831 17 832 0
831 -17 832 0
831 17 -832 0
-832 -18 -833 0
-832 18 833 0
832 -18 833 0
832 18 -833 0
-833 -19 -834 0
-833 19 834 0
833 -19 834 0
833 19 -834 0
-834 -20 -835 0
-834 20 835 0
834 -20 835 0
834 20 -835 0
-21 -24 -836 0
-21 24 836 0
21 -24 836 0
21 24 -836 0
-836 -25 -837 0
-836 25 837 0
836 -25 837 0
836 25 -837 0
-837 -26 -838 0
-837 26 838 0
837 -26 838 0
837 26 -838 0
-838 -27 -839 0
-838 27 839 0
838 -27 839 0
838 27 -839 0
-839 -28 -840 0
-839 28 840 0
839 -28 840 0
839 28 -840 0
-840 -29 -841 0
-840 29 841 0
840 -29 841 0
840 29 -841 0
-841 -30 -842 0
-841 30 842 0
841 -30 842 0
841 30 -842 0
-842 -31 -843 0
-842 31 843 0
842 -31 843 0
842 31 -843 0
-843 -34 -844 0
-843 34 844 0
843 -34 844 0
843 34 -844 0
-844 -35 -845 0
-844 35 845 0
844 -35 845 0
844 35 -845 0
-845 -36 -846 0
-845 36 846 0
845 -36 846 0
845 36 -846 0
-846 -37 -847 0
-846 37 847 0
846 -37 847 0
846 37 -847 0
-847 -38 -848 0
-847 38 848 0
847 -38 848 0
847 38 -848 0
-848 -39 -849 0
-848 39 849 0
848 -39 849 0
848 39 -849 0
-849 -40 -850 0
-849 40 850 0
849 -40 850 0
849 40 -850 0
835 850 0
-1 -3 -851 0
-1 3 851 0
1 -3 851 0
1 3 -851 0
-851 -9 -852 0
-851 9 852 0
851 -9 852 0
851 9 -852 0
-852 -21 -853 0
-852 21 853 0
852 -21 853 0
852 21 -853 0
-853 -23 -854 0
-853 23 854 0
853 -23 854 0
853 23 -854 0
-854 -29 -855 0
-854 29 855 0
854 -29 855 0
854 29 -855 0
-31 -33 -856 0
-31 33 856 0
31 -33 856 0
31 33 -856 0
-856 -39 -857 0
-856 39 857 0
856 -39 857 0
856 39 -857 0
855 857 0
-21 -22 -858 0
-21 22 858 0
21 -22 858 0
21 22 -858 0
-858 -23 -859 0
-858 23 859 0
858 -23 859 0
858 23 -859 0
-859 -24 -860 0
-859 24 860 0
859 -24 860 0
859 24 -860 0
-860 -29 -861 0
-860 29 861 0
860 -29 861 0
860 29 -861 0
-1 -2 -862 0
-1 2 862 0
1 -2 862 0
1 2 -862 0
-862 -3 -863 0
-862 3 863 0
862 -3 863 0
862 3 -863 0
-863 -4 -864 0
-863 4 864 0
863 -4 864 0
863 4 -864 0
-864 -9 -865 0
-864 9 865 0
864 -9 865 0
864 9 -865 0
-865 -11 -866 0
-865 11 866 0
865 -11 866 0
865 11 -866 0
-866 -12 -867 0
-866 12 867 0
866 -12 867 0
866 12 -867 0
-867 -13 -868 0
-867 13 868 0
867 -13 868 0
867 13 -868 0
-868 -14 -869 0
-868 14 869 0
868 -14 869 0
868 14 -869 0
-869 -19 -870 0
-869 19 870 0
869 -19 870 0
869 19 -870 0
-870 -31 -871 0
-870 31 871 0
870 -31 871 0
870 31 -871 0
-871 -32 -872 0
-871 32 872 0
871 -32 872 0
871 32 -872 0
-872 -33 -873 0
-872 33 873 0
872 -33 873 0
872 33 -873 0
-873 -34 -874 0
-873 34 874 0
873 -34 874 0
873 34 -874 0
-874 -39 -875 0
-874 39 875 0
874 -39 875 0
874 39 -875 0
861 875 0
-2 -4 -876 0
-2 4 876 0
2 -4 876 0
2 4 -876 0
-876 -5 -877 0
-876 5 877 0
876 -5 877 0
876 5 -877 0
-877 -9 -878 0
-877 9 878 0
877 -9 878 0
877 9 -878 0
-878 -12 -879 0
-878 12 879 0
878 -12 879 0
878 12 -879 0
-879 -14 -880 0
-879 14 880 0
879 -14 880 0
879 14 -880 0
-880 -15 -881 0
-880 15 881 0
880 -15 881 0
880 15 -881 0
-881 -19 -882 0
-881 19 882 0
881 -19 882 0
881 19 -882 0
-882 -22 -883 0
-882 22 883 0
882 -22 883 0
882 22 -883 0
-883 -24 -884 0
-883 24 884 0
883 -24 884 0
883 24 -884 0
-884 -25 -885 0
-884 25 885 0
884 -25 885 0
884 25 -885 0
-885 -29 -886 0
-885 29 886 0
885 -29 886 0
885 29 -886 0
-32 -34 -887 0
-32 34 887 0
32 -34 887 0
32 34 -887 0
-887 -35 -888 0
-887 35 888 0
887 -35 888 0
887 35 -888 0
-888 -39 -889 0
-888 39 889 0
888 -39 889 0
888 39 -889 0
886 889 0
-11 -12 -890 0
-11 12 890 0
11 -12 890 0
11 12 -890 0
-890 -14 -891 0
-890 14 891 0
890 -14 891 0
890 14 -891 0
-891 -15 -892 0
-891 15 892 0
891 -15 892 0
891 15 -892 0
-892 -19 -893 0
-892 19 893 0
892 -19 893 0
892 19 -893 0
-893 -21 -894 0
-893 21 894 0
893 -21 894 0
893 21 -894 0
-894 -22 -895 0
-894 22 895 0
894 -22 895 0
894 22 -895 0
-895 -24 -896 0
-895 24 896 0
895 -24 896 0
895 24 -896 0
-896 -25 -897 0
-896 25 897 0
896 -25 897 0
896 25 -897 0
-897 -29 -898 0
-897 29 898 0
897 -29 898 0
897 29 -898 0
-11 -12 -899 0
-11 12 899 0
11 -12 899 0
11 12 -899 0
-899 -14 -900 0
-899 14 900 0
899 -14 900 0
899 14 -900 0
-900 -15 -901 0
-900 15 901 0
900 -15 901 0
900 15 -901 0
-901 -19 -902 0
-901 19 902 0
901 -19 902 0
901 19 -902 0
-902 -31 -903 0
-902 31 903 0
902 -31 903 0
902 31 -903 0
-903 -32 -904 0
-903 32 904 0
903 -32 904 0
903 32 -904 0
-904 -34 -905 0
-904 34 905 0
904 -34 905 0
904 34 -905 0
-905 -35 -906 0
-905 35 906 0
905 -35 906 0
905 35 -906 0
-906 -39 -907 0
-906 39 907 0
906 -39 907 0
906 39 -907 0
898 907 0
-2 -3 -908 0
-2 3 908 0
2 -3 908 0
2 3 -908 0
-908 -4 -909 0
-908 4 909 0
908 -4 909 0
908 4 -909 0
-909 -6 -910 0
-909 6 910 0
909 -6 910 0
909 6 -910 0
-910 -9 -911 0
-910 9 911 0
910 -9 911 0
910 9 -911 0
-911 -12 -912 0
-911 12 912 0
911 -12 912 0
911 12 -912 0
-912 -13 -913 0
-912 13 913 0
912 -13 913 0
912 13 -913 0
-913 -14 -914 0
-913 14 914 0
913 -14 914 0
913 14 -914 0
-914 -16 -915 0
-914 16 915 0
914 -16 915 0
914 16 -915 0
-915 -19 -916 0
-915 19 916 0
915 -19 916 0
915 19 -916 0
-916 -22 -917 0
-916 22 917 0
916 -22 917 0
916 22 -917 0
-917 -23 -918 0
-917 23 918 0
917 -23 918 0
917 23 -918 0
-918 -24 -919 0
-918 24 919 0
918 -24 919 0
918 24 -919 0
-919 -26 -920 0
-919 26 920 0
919 -26 920 0
919 26 -920 0
-920 -29 -921 0
-920 29 921 0
920 -29 921 0
920 29 -921 0
-2 -3 -922 0
-2 3 922 0
2 -3 922 0
2 3 -922 0
-922 -4 -923 0
-922 4 923 0
922 -4 923 0
922 4 -923 0
-923 -6 -924 0
-923 6 924 0
923 -6 924 0
923 6 -924 0
-924 -9 -925 0
-924 9 925 0
924 -9 925 0
924 9 -925 0
-925 -12 -926 0
-925 12 926 0
925 -12 926 0
925 12 -926 0
-926 -13 -927 0
-926 13 927 0
926 -13 927 0
926 13 -927 0
-927 -14 -928 0
-927 14 928 0
927 -14 928 0
927 14 -928 0
-928 -16 -929 0
-928 16 929 0
928 -16 929 0
928 16 -929 0
-929 -19 -930 0
-929 19 930 0
929 -19 930 0
929 19 -930 0
-930 -32 -931 0
-930 32 931 0
930 -32 931 0
930 32 -931 0
-931 -33 -932 0
-931 33 932 0
931 -33 932 0
931 33 -932 0
-932 -34 -933 0
-932 34 933 0
932 -34 933 0
932 34 -933 0
-933 -36 -934 0
-933 36 934 0
933 -36 934 0
933 36 -934 0
-934 -39 -935 0
-934 39 935 0
934 -39 935 0
934 39 -935 0
921 935 0
-21 -23 -936 0
-21 23 936 0
21 -23 936 0
21 23 -936 0
-936 -24 -937 0
-936 24 937 0
936 -24 937 0
936 24 -937 0
-937 -25 -938 0
-937 25 938 0
937 -25 938 0
937 25 -938 0
-938 -26 -939 0
-938 26 939 0
938 -26 939 0
938 26 -939 0
-939 -29 -940 0
-939 29 940 0
939 -29 940 0
939 29 -940 0
-31 -33 -941 0
-31 33 941 0
31 -33 941 0
31 33 -941 0
-941 -34 -942 0
-941 34 942 0
941 -34 942 0
941 34 -942 0
-942 -35 -943 0
-942 35 943 0
942 -35 943 0
942 35 -943 0
-943 -36 -944 0
-943 36 944 0
943 -36 944 0
943 36 -944 0
-944 -39 -945 0
-944 39 945 0
944 -39 945 0
944 39 -945 0
940 945 0
-12 -17 -946 0
-12 17 946 0
12 -17 946 0
12 17 -946 0
-946 -19 -947 0
-946 19 947 0
946 -19 947 0
946 19 -947 0
-947 -22 -948 0
-947 22 948 0
947 -22 948 0
947 22 -948 0
-948 -27 -949 0
-948 27 949 0
948 -27 949 0
948 27 -949 0
-949 -29 -950 0
-949 29 950 0
949 -29 950 0
949 29 -950 0
-2 -7 -951 0
-2 7 951 0
2 -7 951 0
2 7 -951 0
-951 -9 -952 0
-951 9 952 0
951 -9 952 0
951 9 -952 0
-952 -32 -953 0
-952 32 953 0
952 -32 953 0
952 32 -953 0
-953 -37 -954 0
-953 37 954 0
953 -37 954 0
953 37 -954 0
-954 -39 -955 0
-954 39 955 0
954 -39 955 0
954 39 -955 0
950 955 0
-1 -3 -956 0
-1 3 956 0
1 -3 956 0
1 3 -956 0
-956 -4 -957 0
-956 4 957 0
956 -4 957 0
956 4 -957 0
-957 -7 -958 0
-957 7 958 0
957 -7 958 0
957 7 -958 0
-958 -9 -959 0
-958 9 959 0
958 -9 959 0
958 9 -959 0
-959 -21 -960 0
-959 21 960 0
959 -21 960 0
959 21 -960 0
-960 -23 -961 0
-960 23 961 0
960 -23 961 0
960 23 -961 0
-961 -24 -962 0
-961 24 962 0
961 -24 962 0
961 24 -962 0
-962 -27 -963 0
-962 27 963 0
962 -27 963 0
962 27 -963 0
-963 -29 -964 0
-963 29 964 0
963 -29 964 0
963 29 -964 0
-1 -3 -965 0
-1 3 965 0
1 -3 965 0
1 3 -965 0
-965 -4 -966 0
-965 4 966 0
965 -4 966 0
965 4 -966 0
-966 -7 -967 0
-966 7 967 0
966 -7 967 0
966 7 -967 0
-967 -9 -968 0
-967 9 968 0
967 -9 968 0
967 9 -968 0
-968 -11 -969 0
-968 11 969 0
968 -11 969 0
968 11 -969 0
-969 -13 -970 0
-969 13 970 0
969 -13 970 0
969 13 -970 0
-970 -14 -971 0
-970 14 971 0
970 -14 971 0
970 14 -971 0
-971 -17 -972 0
-971 17 972 0
971 -17 972 0
971 17 -972 0
-972 -19 -973 0
-972 19 973 0
972 -19 973 0
972 19 -973 0
-973 -31 -974 0
-973 31 974 0
973 -31 974 0
973 31 -974 0
-974 -33 -975 0
-974 33 975 0
974 -33 975 0
974 33 -975 0
-975 -34 -976 0
-975 34 976 0
975 -34 976 0
975 34 -976 0
-976 -37 -977 0
-976 37 977 0
976 -37 977 0
976 37 -977 0
-977 -39 -978 0
-977 39 978 0
977 -39 978 0
977 39 -978 0
964 978 0
-3 -4 -979 0
-3 4 979 0
3 -4 979 0
3 4 -979 0
-979 -8 -980 0
-979 8 980 0
979 -8 980 0
979 8 -980 0
-980 -9 -981 0
-980 9 981 0
980 -9 981 0
980 9 -981 0
-981 -23 -982 0
-981 23 982 0
981 -23 982 0
981 23 -982 0
-982 -24 -983 0
-982 24 983 0
982 -24 983 0
982 24 -983 0
-983 -28 -984 0
-983 28 984 0
983 -28 984 0
983 28 -984 0
-984 -29 -985 0
-984 29 985 0
984 -29 985 0
984 29 -985 0
-13 -14 -986 0
-13 14 986 0
13 -14 986 0
13 14 -986 0
-986 -18 -987 0
-986 18 987 0
986 -18 987 0
986 18 -987 0
-987 -19 -988 0
-987 19 988 0
987 -19 988 0
987 19 -988 0
-988 -33 -989 0
-988 33 989 0
988 -33 989 0
988 33 -989 0
-989 -34 -990 0
-989 34 990 0
989 -34 990 0
989 34 -990 0
-990 -38 -991 0
-990 38 991 0
990 -38 991 0
990 38 -991 0
-991 -39 -992 0
-991 39 992 0
991 -39 992 0
991 39 -992 0
985 992 0
-3 -5 -993 0
-3 5 993 0
3 -5 993 0
3 5 -993 0
-993 -8 -994 0
-993 8 994 0
993 -8 994 0
993 8 -994 0
-994 -9 -995 0
-994 9 995 0
994 -9 995 0
994 9 -995 0
-995 -13 -996 0
-995 13 996 0
995 -13 996 0
995 13 -996 0
-996 -15 -997 0
-996 15 997 0
996 -15 997 0
996 15 -997 0
-997 -18 -998 0
-997 18 998 0
997 -18 998 0
997 18 -998 0
-998 -19 -999 0
-998 19 999 0
998 -19 999 0
998 19 -999 0
-999 -23 -1000 0
-999 23 1000 0
999 -23 1000 0
999 23 -1000 0
-1000 -25 -1001 0
-1000 25 1001 0
1000 -25 1001 0
1000 25 -1001 0
-1001 -28 -1002 0
-1001 28 1002 0
1001 -28 1002 0
1001 28 -1002 0
-1002 -29 -1003 0
-1002 29 1003 0
1002 -29 1003 0
1002 29 -1003 0
-13 -15 -1004 0
-13 15 1004 0
13 -15 1004 0
13 15 -1004 0
-1004 -18 -1005 0
-1004 18 1005 0
1004 -18 1005 0
1004 18 -1005 0
-1005 -19 -1006 0
-1005 19 1006 0
1005 -19 1006 0
1005 19 -1006 0
-1006 -33 -1007 0
-1006 33 1007 0
1006 -33 1007 0
1006 33 -1007 0
-1007 -35 -1008 0
-1007 35 1008 0
1007 -35 1008 0
1007 35 -1008 0
-1008 -38 -1009 0
-1008 38 1009 0
1008 -38 1009 0
1008 38 -1009 0
-1009 -39 -1010 0
-1009 39 1010 0
1009 -39 1010 0
1009 39 -1010 0
1003 1010 0
-12 -14 -1011 0
-12 14 1011 0
12 -14 1011 0
12 14 -1011 0
-1011 -16 -1012 0
-1011 16 1012 0
1011 -16 1012 0
1011 16 -1012 0
-1012 -18 -1013 0
-1012 18 1013 0
1012 -18 1013 0
1012 18 -1013 0
-1013 -19 -1014 0
-1013 19 1014 0
1013 -19 1014 0
1013 19 -1014 0
-1014 -22 -1015 0
-1014 22 1015 0
1014 -22 1015 0
1014 22 -1015 0
-1015 -24 -1016 0
-1015 24 1016 0
1015 -24 1016 0
1015 24 -1016 0
-1016 -26 -1017 0
-1016 26 1017 0
1016 -26 1017 0
1016 26 -1017 0
-1017 -28 -1018 0
-1017 28 1018 0
1017 -28 1018 0
1017 28 -1018 0
-1018 -29 -1019 0
-1018 29 1019 0
1018 -29 1019 0
1018 29 -1019 0
-2 -4 -1020 0
-2 4 1020 0
2 -4 1020 0
2 4 -1020 0
-1020 -6 -1021 0
-1020 6 1021 0
1020 -6 1021 0
1020 6 -1021 0
-1021 -8 -1022 0
-1021 8 1022 0
1021 -8 1022 0
1021 8 -1022 0
-1022 -9 -1023 0
-1022 9 1023 0
1022 -9 1023 0
1022 9 -1023 0
-1023 -12 -1024 0
-1023 12 1024 0
1023 -12 1024 0
1023 12 -1024 0
-1024 -14 -1025 0
-1024 14 1025 0
1024 -14 1025 0
1024 14 -1025 0
-1025 -16 -1026 0
-1025 16 1026 0
1025 -16 1026 0
1025 16 -1026 0
-1026 -18 -1027 0
-1026 18 1027 0
1026 -18 1027 0
1026 18 -1027 0
-1027 -19 -1028 0
-1027 19 1028 0
1027 -19 1028 0
1027 19 -1028 0
-1028 -32 -1029 0
-1028 32 1029 0
1028 -32 1029 0
1028 32 -1029 0
-1029 -34 -1030 0
-1029 34 1030 0
1029 -34 1030 0
1029 34 -1030 0
-1030 -36 -1031 0
-1030 36 1031 0
1030 -36 1031 0
1030 36 -1031 0
-1031 -38 -1032 0
-1031 38 1032 0
1031 -38 1032 0
1031 38 -1032 0
-1032 -39 -1033 0
-1032 39 1033 0
1032 -39 1033 0
1032 39 -1033 0
1019 1033 0
-1 -2 -1034 0
-1 2 1034 0
1 -2 1034 0
1 2 -1034 0
-1034 -4 -1035 0
-1034 4 1035 0
1034 -4 1035 0
1034 4 -1035 0
-1035 -5 -1036 0
-1035 5 1036 0
1035 -5 1036 0
1035 5 -1036 0
-1036 -6 -1037 0
-1036 6 1037 0
1036 -6 1037 0
1036 6 -1037 0
-1037 -8 -1038 0
-1037 8 1038 0
1037 -8 1038 0
1037 8 -1038 0
-1038 -9 -1039 0
-1038 9 1039 0
1038 -9 1039 0
1038 9 -1039 0
-1039 -11 -1040 0
-1039 11 1040 0
1039 -11 1040 0
1039 11 -1040 0
-1040 -12 -1041 0
-1040 12 1041 0
1040 -12 1041 0
1040 12 -1041 0
-1041 -14 -1042 0
-1041 14 1042 0
1041 -14 1042 0
1041 14 -1042 0
-1042 -15 -1043 0
-1042 15 1043 0
1042 -15 1043 0
1042 15 -1043 0
-1043 -16 -1044 0
-1043 16 1044 0
1043 -16 1044 0
1043 16 -1044 0
-1044 -18 -1045 0
-1044 18 1045 0
1044 -18 1045 0
1044 18 -1045 0
-1045 -19 -1046 0
-1045 19 1046 0
1045 -19 1046 0
1045 19 -1046 0
-1046 -21 -1047 0
-1046 21 1047 0
1046 -21 1047 0
1046 21 -1047 0
-1047 -22 -1048 0
-1047 22 1048 0
1047 -22 1048 0
1047 22 -1048 0
-1048 -24 -1049 0
-1048 24 1049 0
1048 -24 1049 0
1048 24 -1049 0
-1049 -25 -1050 0
-1049 25 1050 0
1049 -25 1050 0
1049 25 -1050 0
-1050 -26 -1051 0
-1050 26 1051 0
1050 -26 1051 0
1050 26 -1051 0
-1051 -28 -1052 0
-1051 28 1052 0
1051 -28 1052 0
1051 28 -1052 0
-1052 -29 -1053 0
-1052 29 1053 0
1052 -29 1053 0
1052 29 -1053 0
-1 -2 -1054 0
-1 2 1054 0
1 -2 1054 0
1 2 -1054 0
-1054 -4 -1055 0
-1054 4 1055 0
1054 -4 1055 0
1054 4 -1055 0
-1055 -5 -1056 0
-1055 5 1056 0
1055 -5 1056 0
1055 5 -1056 0
-1056 -6 -1057 0
-1056 6 1057 0
1056 -6 1057 0
1056 6 -1057 0
-1057 -8 -1058 0
-1057 8 1058 0
1057 -8 1058 0
1057 8 -1058 0
-1058 -9 -1059 0
-1058 9 1059 0
1058 -9 1059 0
1058 9 -1059 0
-1059 -31 -1060 0
-1059 31 1060 0
1059 -31 1060 0
1059 31 -1060 0
-1060 -32 -1061 0
-1060 32 1061 0
1060 -32 1061 0
1060 32 -1061 0
-1061 -34 -1062 0
-1061 34 1062 0
1061 -34 1062 0
1061 34 -1062 0
-1062 -35 -1063 0
-1062 35 1063 0
1062 -35 1063 0
1062 35 -1063 0
-1063 -36 -1064 0
-1063 36 1064 0
1063 -36 1064 0
1063 36 -1064 0
-1064 -38 -1065 0
-1064 38 1065 0
1064 -38 1065 0
1064 38 -1065 0
-1065 -39 -1066 0
-1065 39 1066 0
1065 -39 1066 0
1065 39 -1066 0
1053 1066 0
-21 -22 -1067 0
-21 22 1067 0
21 -22 1067 0
21 22 -1067 0
-1067 -23 -1068 0
-1067 23 1068 0
1067 -23 1068 0
1067 23 -1068 0
-1068 -27 -1069 0
-1068 27 1069 0
1068 -27 1069 0
1068 27 -1069 0
-1069 -28 -1070 0
-1069 28 1070 0
1069 -28 1070 0
1069 28 -1070 0
-1070 -29 -1071 0
-1070 29 1071 0
1070 -29 1071 0
1070 29 -1071 0
-11 -12 -1072 0
-11 12 1072 0
11 -12 1072 0
11 12 -1072 0
-1072 -13 -1073 0
-1072 13 1073 0
1072 -13 1073 0
1072 13 -1073 0
-1073 -17 -1074 0
-1073 17 1074 0
1073 -17 1074 0
1073 17 -1074 0
-1074 -18 -1075 0
-1074 18 1075 0
1074 -18 1075 0
1074 18 -1075 0
-1075 -19 -1076 0
-1075 19 1076 0
1075 -19 1076 0
1075 19 -1076 0
-1076 -31 -1077 0
-1076 31 1077 0
1076 -31 1077 0
1076 31 -1077 0
-1077 -32 -1078 0
-1077 32 1078 0
1077 -32 1078 0
1077 32 -1078 0
-1078 -33 -1079 0
-1078 33 1079 0
1078 -33 1079 0
1078 33 -1079 0
-1079 -37 -1080 0
-1079 37 1080 0
1079 -37 1080 0
1079 37 -1080 0
-1080 -38 -1081 0
-1080 38 1081 0
1080 -38 1081 0
1080 38 -1081 0
-1081 -39 -1082 0
-1081 39 1082 0
1081 -39 1082 0
1081 39 -1082 0
1071 1082 0
-2 -3 -1083 0
-2 3 1083 0
2 -3 1083 0
2 3 -1083 0
-1083 -5 -1084 0
-1083 5 1084 0
1083 -5 1084 0
1083 5 -1084 0
-1084 -7 -1085 0
-1084 7 1085 0
1084 -7 1085 0
1084 7 -1085 0
-1085 -8 -1086 0
-1085 8 1086 0
1085 -8 1086 0
1085 8 -1086 0
-1086 -9 -1087 0
-1086 9 1087 0
1086 -9 1087 0
1086 9 -1087 0
-1087 -22 -1088 0
-1087 22 1088 0
1087 -22 1088 0
1087 22 -1088 0
-1088 -23 -1089 0
-1088 23 1089 0
1088 -23 1089 0
1088 23 -1089 0
-1089 -25 -1090 0
-1089 25 1090 0
1089 -25 1090 0
1089 25 -1090 0
-1090 -27 -1091 0
-1090 27 1091 0
1090 -27 1091 0
1090 27 -1091 0
-1091 -28 -1092 0
-1091 28 1092 0
1091 -28 1092 0
1091 28 -1092 0
-1092 -29 -1093 0
-1092 29 1093 0
1092 -29 1093 0
1092 29 -1093 0
-2 -3 -1094 0
-2 3 1094 0
2 -3 1094 0
2 3 -1094 0
-1094 -5 -1095 0
-1094 5 1095 0
1094 -5 1095 0
1094 5 -1095 0
-1095 -7 -1096 0
-1095 7 1096 0
1095 -7 1096 0
1095 7 -1096 0
-1096 -8 -1097 0
-1096 8 1097 0
1096 -8 1097 0
1096 8 -1097 0
-1097 -9 -1098 0
-1097 9 1098 0
1097 -9 1098 0
1097 9 -1098 0
-1098 -32 -1099 0
-1098 32 1099 0
1098 -32 1099 0
1098 32 -1099 0
-1099 -33 -1100 0
-1099 33 1100 0
1099 -33 1100 0
1099 33 -1100 0
-1100 -35 -1101 0
-1100 35 1101 0
1100 -35 1101 0
1100 35 -1101 0
-1101 -37 -1102 0
-1101 37 1102 0
1101 -37 1102 0
1101 37 -1102 0
-1102 -38 -1103 0
-1102 38 1103 0
1102 -38 1103 0
1102 38 -1103 0
-1103 -39 -1104 0
-1103 39 1104 0
1103 -39 1104 0
1103 39 -1104 0
1093 1104 0
-11 -14 -1105 0
-11 14 1105 0
11 -14 1105 0
11 14 -1105 0
-1105 -16 -1106 0
-1105 16 1106 0
1105 -16 1106 0
1105 16 -1106 0
-1106 -17 -1107 0
-1106 17 1107 0
1106 -17 1107 0
1106 17 -1107 0
-1107 -18 -1108 0
-1107 18 1108 0
1107 -18 1108 0
1107 18 -1108 0
-1108 -19 -1109 0
-1108 19 1109 0
1108 -19 1109 0
1108 19 -1109 0
-1109 -21 -1110 0
-1109 21 1110 0
1109 -21 1110 0
1109 21 -1110 0
-1110 -24 -1111 0
-1110 24 1111 0
1110 -24 1111 0
1110 24 -1111 0
-1111 -26 -1112 0
-1111 26 1112 0
1111 -26 1112 0
1111 26 -1112 0
-1112 -27 -1113 0
-1112 27 1113 0
1112 -27 1113 0
1112 27 -1113 0
-1113 -28 -1114 0
-1113 28 1114 0
1113 -28 1114 0
1113 28 -1114 0
-1114 -29 -1115 0
-1114 29 1115 0
1114 -29 1115 0
1114 29 -1115 0
-31 -34 -1116 0
-31 34 1116 0
31 -34 1116 0
31 34 -1116 0
-1116 -36 -1117 0
-1116 36 1117 0
1116 -36 1117 0
1116 36 -1117 0
-1117 -37 -1118 0
-1117 37 1118 0
1117 -37 1118 0
1117 37 -1118 0
-1118 -38 -1119 0
-1118 38 1119 0
1118 -38 1119 0
1118 38 -1119 0
-1119 -39 -1120 0
-1119 39 1120 0
1119 -39 1120 0
1119 39 -1120 0
1115 1120 0
-23 -24 -1121 0
-23 24 1121 0
23 -24 1121 0
23 24 -1121 0
-1121 -26 -1122 0
-1121 26 1122 0
1121 -26 1122 0
1121 26 -1122 0
-1122 -27 -1123 0
-1122 27 1123 0
1122 -27 1123 0
1122 27 -1123 0
-1123 -28 -1124 0
-1123 28 1124 0
1123 -28 1124 0
1123 28 -1124 0
-1124 -29 -1125 0
-1124 29 1125 0
1124 -29 1125 0
1124 29 -1125 0
-3 -4 -1126 0
-3 4 1126 0
3 -4 1126 0
3 4 -1126 0
-1126 -6 -1127 0
-1126 6 1127 0
1126 -6 1127 0
1126 6 -1127 0
-1127 -7 -1128 0
-1127 7 1128 0
1127 -7 1128 0
1127 7 -1128 0
-1128 -8 -1129 0
-1128 8 1129 0
1128 -8 1129 0
1128 8 -1129 0
-1129 -9 -1130 0
-1129 9 1130 0
1129 -9 1130 0
1129 9 -1130 0
-1130 -33 -1131 0
-1130 33 1131 0
1130 -33 1131 0
1130 33 -1131 0
-1131 -34 -1132 0
-1131 34 1132 0
1131 -34 1132 0
1131 34 -1132 0
-1132 -36 -1133 0
-1132 36 1133 0
1132 -36 1133 0
1132 36 -1133 0
-1133 -37 -1134 0
-1133 37 1134 0
1133 -37 1134 0
1133 37 -1134 0
-1134 -38 -1135 0
-1134 38 1135 0
1134 -38 1135 0
1134 38 -1135 0
-1135 -39 -1136 0
-1135 39 1136 0
1135 -39 1136 0
1135 39 -1136 0
1125 1136 0
-21 -22 -1137 0
-21 22 1137 0
21 -22 1137 0
21 22 -1137 0
-1137 -23 -1138 0
-1137 23 1138 0
1137 -23 1138 0
1137 23 -1138 0
-1138 -30 -1139 0
-1138 30 1139 0
1138 -30 1139 0
1138 30 -1139 0
-1 -2 -1140 0
-1 2 1140 0
1 -2 1140 0
1 2 -1140 0
-1140 -3 -1141 0
-1140 3 1141 0
1140 -3 1141 0
1140 3 -1141 0
-1141 -10 -1142 0
-1141 10 1142 0
1141 -10 1142 0
1141 10 -1142 0
-1142 -11 -1143 0
-1142 11 1143 0
1142 -11 1143 0
1142 11 -1143 0
-1143 -12 -1144 0
-1143 12 1144 0
1143 -12 1144 0
1143 12 -1144 0
-1144 -13 -1145 0
-1144 13 1145 0
1144 -13 1145 0
1144 13 -1145 0
-1145 -20 -1146 0
-1145 20 1146 0
1145 -20 1146 0
1145 20 -1146 0
-1146 -31 -1147 0
-1146 31 1147 0
1146 -31 1147 0
1146 31 -1147 0
-1147 -32 -1148 0
-1147 32 1148 0
1147 -32 1148 0
1147 32 -1148 0
-1148 -33 -1149 0
-1148 33 1149 0
1148 -33 1149 0
1148 33 -1149 0
-1149 -40 -1150 0
-1149 40 1150 0
1149 -40 1150 0
1149 40 -1150 0
1139 1150 0
-2 -4 -1151 0
-2 4 1151 0
2 -4 1151 0
2 4 -1151 0
-1151 -10 -1152 0
-1151 10 1152 0
1151 -10 1152 0
1151 10 -1152 0
-1152 -22 -1153 0
-1152 22 1153 0
1152 -22 1153 0
1152 22 -1153 0
-1153 -24 -1154 0
-1153 24 1154 0
1153 -24 1154 0
1153 24 -1154 0
-1154 -30 -1155 0
-1154 30 1155 0
1154 -30 1155 0
1154 30 -1155 0
-32 -34 -1156 0
-32 34 1156 0
32 -34 1156 0
32 34 -1156 0
-1156 -40 -1157 0
-1156 40 1157 0
1156 -40 1157 0
1156 40 -1157 0
1155 1157 0
-22 -23 -1158 0
-22 23 1158 0
22 -23 1158 0
22 23 -1158 0
-1158 -24 -1159 0
-1158 24 1159 0
1158 -24 1159 0
1158 24 -1159 0
-1159 -25 -1160 0
-1159 25 1160 0
1159 -25 1160 0
1159 25 -1160 0
-1160 -30 -1161 0
-1160 30 1161 0
1160 -30 1161 0
1160 30 -1161 0
-12 -13 -1162 0
-12 13 1162 0
12 -13 1162 0
12 13 -1162 0
-1162 -14 -1163 0
-1162 14 1163 0
1162 -14 1163 0
1162 14 -1163 0
-1163 -15 -1164 0
-1163 15 1164 0
1163 -15 1164 0
1163 15 -1164 0
-1164 -20 -1165 0
-1164 20 1165 0
1164 -20 1165 0
1164 20 -1165 0
-1165 -32 -1166 0
-1165 32 1166 0
1165 -32 1166 0
1165 32 -1166 0
-1166 -33 -1167 0
-1166 33 1167 0
1166 -33 1167 0
1166 33 -1167 0
-1167 -34 -1168 0
-1167 34 1168 0
1167 -34 1168 0
1167 34 -1168 0
-1168 -35 -1169 0
-1168 35 1169 0
1168 -35 1169 0
1168 35 -1169 0
-1169 -40 -1170 0
-1169 40 1170 0
1169 -40 1170 0
1169 40 -1170 0
1161 1170 0
-1 -3 -1171 0
-1 3 1171 0
1 -3 1171 0
1 3 -1171 0
-1171 -4 -1172 0
-1171 4 1172 0
1171 -4 1172 0
1171 4 -1172 0
-1172 -6 -1173 0
-1172 6 1173 0
1172 -6 1173 0
1172 6 -1173 0
-1173 -10 -1174 0
-1173 10 1174 0
1173 -10 1174 0
1173 10 -1174 0
-1174 -11 -1175 0
-1174 11 1175 0
1174 -11 1175 0
1174 11 -1175 0
-1175 -13 -1176 0
-1175 13 1176 0
1175 -13 1176 0
1175 13 -1176 0
-1176 -14 -1177 0
-1176 14 1177 0
1176 -14 1177 0
1176 14 -1177 0
-1177 -16 -1178 0
-1177 16 1178 0
1177 -16 1178 0
1177 16 -1178 0
-1178 -20 -1179 0
-1178 20 1179 0
1178 -20 1179 0
1178 20 -1179 0
-1179 -21 -1180 0
-1179 21 1180 0
1179 -21 1180 0
1179 21 -1180 0
-1180 -23 -1181 0
-1180 23 1181 0
1180 -23 1181 0
1180 23 -1181 0
-1181 -24 -1182 0
-1181 24 1182 0
1181 -24 1182 0
1181 24 -1182 0
-1182 -26 -1183 0
-1182 26 1183 0
1182 -26 1183 0
1182 26 -1183 0
-1183 -30 -1184 0
-1183 30 1184 0
1183 -30 1184 0
1183 30 -1184 0
-31 -33 -1185 0
-31 33 1185 0
31 -33 1185 0
31 33 -1185 0
-1185 -34 -1186 0
-1185 34 1186 0
1185 -34 1186 0
1185 34 -1186 0
-1186 -36 -1187 0
-1186 36 1187 0
1186 -36 1187 0
1186 36 -1187 0
-1187 -40 -1188 0
-1187 40 1188 0
1187 -40 1188 0
1187 40 -1188 0
1184 1188 0
-11 -12 -1189 0
-11 12 1189 0
11 -12 1189 0
11 12 -1189 0
-1189 -13 -1190 0
-1189 13 1190 0
1189 -13 1190 0
1189 13 -1190 0
-1190 -14 -1191 0
-1190 14 1191 0
1190 -14 1191 0
1190 14 -1191 0
-1191 -16 -1192 0
-1191 16 1192 0
1191 -16 1192 0
1191 16 -1192 0
-1192 -20 -1193 0
-1192 20 1193 0
1192 -20 1193 0
1192 20 -1193 0
-1193 -21 -1194 0
-1193 21 1194 0
1193 -21 1194 0
1193 21 -1194 0
-1194 -22 -1195 0
-1194 22 1195 0
1194 -22 1195 0
1194 22 -1195 0
-1195 -23 -1196 0
-1195 23 1196 0
1195 -23 1196 0
1195 23 -1196 0
-1196 -24 -1197 0
-1196 24 1197 0
1196 -24 1197 0
1196 24 -1197 0
-1197 -26 -1198 0
-1197 26 1198 0
1197 -26 1198 0
1197 26 -1198 0
-1198 -30 -1199 0
-1198 30 1199 0
1198 -30 1199 0
1198 30 -1199 0
-11 -12 -1200 0
-11 12 1200 0
11 -12 1200 0
11 12 -1200 0
-1200 -13 -1201 0
-1200 13 1201 0
1200 -13 1201 0
1200 13 -1201 0
-1201 -14 -1202 0
-1201 14 1202 0
1201 -14 1202 0
1201 14 -1202 0
-1202 -16 -1203 0
-1202 16 1203 0
1202 -16 1203 0
1202 16 -1203 0
-1203 -20 -1204 0
-1203 20 1204 0
1203 -20 1204 0
1203 20 -1204 0
-1204 -31 -1205 0
-1204 31 1205 0
1204 -31 1205 0
1204 31 -1205 0
-1205 -32 -1206 0
-1205 32 1206 0
1205 -32 1206 0
1205 32 -1206 0
-1206 -33 -1207 0
-1206 33 1207 0
1206 -33 1207 0
1206 33 -1207 0
-1207 -34 -1208 0
-1207 34 1208 0
1207 -34 1208 0
1207 34 -1208 0
-1208 -36 -1209 0
-1208 36 1209 0
1208 -36 1209 0
1208 36 -1209 0
-1209 -40 -1210 0
-1209 40 1210 0
1209 -40 1210 0
1209 40 -1210 0
1199 1210 0
-3 -4 -1211 0
-3 4 1211 0
3 -4 1211 0
3 4 -1211 0
-1211 -5 -1212 0
-1211 5 1212 0
1211 -5 1212 0
1211 5 -1212 0
-1212 -6 -1213 0
-1212 6 1213 0
1212 -6 1213 0
1212 6 -1213 0
-1213 -10 -1214 0
-1213 10 1214 0
1213 -10 1214 0
1213 10 -1214 0
-1214 -23 -1215 0
-1214 23 1215 0
1214 -23 1215 0
1214 23 -1215 0
-1215 -24 -1216 0
-1215 24 1216 0
1215 -24 1216 0
1215 24 -1216 0
-1216 -25 -1217 0
-1216 25 1217 0
1216 -25 1217 0
1216 25 -1217 0
-1217 -26 -1218 0
-1217 26 1218 0
1217 -26 1218 0
1217 26 -1218 0
-1218 -30 -1219 0
-1218 30 1219 0
1218 -30 1219 0
1218 30 -1219 0
-3 -4 -1220 0
-3 4 1220 0
3 -4 1220 0
3 4 -1220 0
-1220 -5 -1221 0
-1220 5 1221 0
1220 -5 1221 0
1220 5 -1221 0
-1221 -6 -1222 0
-1221 6 1222 0
1221 -6 1222 0
1221 6 -1222 0
-1222 -10 -1223 0
-1222 10 1223 0
1222 -10 1223 0
1222 10 -1223 0
-1223 -33 -1224 0
-1223 33 1224 0
1223 -33 1224 0
1223 33 -1224 0
-1224 -34 -1225 0
-1224 34 1225 0
1224 -34 1225 0
1224 34 -1225 0
-1225 -35 -1226 0
-1225 35 1226 0
1225 -35 1226 0
1225 35 -1226 0
-1226 -36 -1227 0
-1226 36 1227 0
1226 -36 1227 0
1226 36 -1227 0
-1227 -40 -1228 0
-1227 40 1228 0
1227 -40 1228 0
1227 40 -1228 0
1219 1228 0
-1 -3 -1229 0
-1 3 1229 0
1 -3 1229 0
1 3 -1229 0
-1229 -7 -1230 0
-1229 7 1230 0
1229 -7 1230 0
1229 7 -1230 0
-1230 -10 -1231 0
-1230 10 1231 0
1230 -10 1231 0
1230 10 -1231 0
-1231 -11 -1232 0
-1231 11 1232 0
1231 -11 1232 0
1231 11 -1232 0
-1232 -13 -1233 0
-1232 13 1233 0
1232 -13 1233 0
1232 13 -1233 0
-1233 -17 -1234 0
-1233 17 1234 0
1233 -17 1234 0
1233 17 -1234 0
-1234 -20 -1235 0
-1234 20 1235 0
1234 -20 1235 0
1234 20 -1235 0
-1235 -21 -1236 0
-1235 21 1236 0
1235 -21 1236 0
1235 21 -1236 0
-1236 -23 -1237 0
-1236 23 1237 0
1236 -23 1237 0
1236 23 -1237 0
-1237 -27 -1238 0
-1237 27 1238 0
1237 -27 1238 0
1237 27 -1238 0
-1238 -30 -1239 0
-1238 30 1239 0
1238 -30 1239 0
1238 30 -1239 0
-1 -3 -1240 0
-1 3 1240 0
1 -3 1240 0
1 3 -1240 0
-1240 -7 -1241 0
-1240 7 1241 0
1240 -7 1241 0
1240 7 -1241 0
-1241 -10 -1242 0
-1241 10 1242 0
1241 -10 1242 0
1241 10 -1242 0
-1242 -11 -1243 0
-1242 11 1243 0
1242 -11 1243 0
1242 11 -1243 0
-1243 -13 -1244 0
-1243 13 1244 0
1243 -13 1244 0
1243 13 -1244 0
-1244 -17 -1245 0
-1244 17 1245 0
1244 -17 1245 0
1244 17 -1245 0
-1245 -20 -1246 0
-1245 20 1246 0
1245 -20 1246 0
1245 20 -1246 0
-1246 -31 -1247 0
-1246 31 1247 0
1246 -31 1247 0
1246 31 -1247 0
-1247 -33 -1248 0
-1247 33 1248 0
1247 -33 1248 0
1247 33 -1248 0
-1248 -37 -1249 0
-1248 37 1249 0
1248 -37 1249 0
1248 37 -1249 0
-1249 -40 -1250 0
-1249 40 1250 0
1249 -40 1250 0
1249 40 -1250 0
1239 1250 0
-21 -25 -1251 0
-21 25 1251 0
21 -25 1251 0
21 25 -1251 0
-1251 -27 -1252 0
-1251 27 1252 0
1251 -27 1252 0
1251 27 -1252 0
-1252 -30 -1253 0
-1252 30 1253 0
1252 -30 1253 0
1252 30 -1253 0
-1 -5 -1254 0
-1 5 1254 0
1 -5 1254 0
1 5 -1254 0
-1254 -7 -1255 0
-1254 7 1255 0
1254 -7 1255 0
1254 7 -1255 0
-1255 -10 -1256 0
-1255 10 1256 0
1255 -10 1256 0
1255 10 -1256 0
-1256 -31 -1257 0
-1256 31 1257 0
1256 -31 1257 0
1256 31 -1257 0
-1257 -35 -1258 0
-1257 35 1258 0
1257 -35 1258 0
1257 35 -1258 0
-1258 -37 -1259 0
-1258 37 1259 0
1258 -37 1259 0
1258 37 -1259 0
-1259 -40 -1260 0
-1259 40 1260 0
1259 -40 1260 0
1259 40 -1260 0
1253 1260 0
-11 -12 -1261 0
-11 12 1261 0
11 -12 1261 0
11 12 -1261 0
-1261 -14 -1262 0
-1261 14 1262 0
1261 -14 1262 0
1261 14 -1262 0
-1262 -15 -1263 0
-1262 15 1263 0
1262 -15 1263 0
1262 15 -1263 0
-1263 -17 -1264 0
-1263 17 1264 0
1263 -17 1264 0
1263 17 -1264 0
-1264 -20 -1265 0
-1264 20 1265 0
1264 -20 1265 0
1264 20 -1265 0
-1265 -21 -1266 0
-1265 21 1266 0
1265 -21 1266 0
1265 21 -1266 0
-1266 -22 -1267 0
-1266 22 1267 0
1266 -22 1267 0
1266 22 -1267 0
-1267 -24 -1268 0
-1267 24 1268 0
1267 -24 1268 0
1267 24 -1268 0
-1268 -25 -1269 0
-1268 25 1269 0
1268 -25 1269 0
1268 25 -1269 0
-1269 -27 -1270 0
-1269 27 1270 0
1269 -27 1270 0
1269 27 -1270 0
-1270 -30 -1271 0
-1270 30 1271 0
1270 -30 1271 0
1270 30 -1271 0
-31 -32 -1272 0
-31 32 1272 0
31 -32 1272 0
31 32 -1272 0
-1272 -34 -1273 0
-1272 34 1273 0
1272 -34 1273 0
1272 34 -1273 0
-1273 -35 -1274 0
-1273 35 1274 0
1273 -35 1274 0
1273 35 -1274 0
-1274 -37 -1275 0
-1274 37 1275 0
1274 -37 1275 0
1274 37 -1275 0
-1275 -40 -1276 0
-1275 40 1276 0
1275 -40 1276 0
1275 40 -1276 0
1271 1276 0
-21 -22 -1277 0
-21 22 1277 0
21 -22 1277 0
21 22 -1277 0
-1277 -26 -1278 0
-1277 26 1278 0
1277 -26 1278 0
1277 26 -1278 0
-1278 -27 -1279 0
-1278 27 1279 0
1278 -27 1279 0
1278 27 -1279 0
-1279 -30 -1280 0
-1279 30 1280 0
1279 -30 1280 0
1279 30 -1280 0
-31 -32 -1281 0
-31 32 1281 0
31 -32 1281 0
31 32 -1281 0
-1281 -36 -1282 0
-1281 36 1282 0
1281 -36 1282 0
1281 36 -1282 0
-1282 -37 -1283 0
-1282 37 1283 0
1282 -37 1283 0
1282 37 -1283 0
-1283 -40 -1284 0
-1283 40 1284 0
1283 -40 1284 0
1283 40 -1284 0
1280 1284 0
-1 -2 -1285 0
-1 2 1285 0
1 -2 1285 0
1 2 -1285 0
-1285 -8 -1286 0
-1285 8 1286 0
1285 -8 1286 0
1285 8 -1286 0
-1286 -10 -1287 0
-1286 10 1287 0
1286 -10 1287 0
1286 10 -1287 0
-1287 -21 -1288 0
-1287 21 1288 0
1287 -21 1288 0
1287 21 -1288 0
-1288 -22 -1289 0
-1288 22 1289 0
1288 -22 1289 0
1288 22 -1289 0
-1289 -28 -1290 0
-1289 28 1290 0
1289 -28 1290 0
1289 28 -1290 0
-1290 -30 -1291 0
-1290 30 1291 0
1290 -30 1291 0
1290 30 -1291 0
-1 -2 -1292 0
-1 2 1292 0
1 -2 1292 0
1 2 -1292 0
-1292 -8 -1293 0
-1292 8 1293 0
1292 -8 1293 0
1292 8 -1293 0
-1293 -10 -1294 0
-1293 10 1294 0
1293 -10 1294 0
1293 10 -1294 0
-1294 -11 -1295 0
-1294 11 1295 0
1294 -11 1295 0
1294 11 -1295 0
-1295 -12 -1296 0
-1295 12 1296 0
1295 -12 1296 0
1295 12 -1296 0
-1296 -18 -1297 0
-1296 18 1297 0
1296 -18 1297 0
1296 18 -1297 0
-1297 -20 -1298 0
-1297 20 1298 0
1297 -20 1298 0
1297 20 -1298 0
-1298 -31 -1299 0
-1298 31 1299 0
1298 -31 1299 0
1298 31 -1299 0
-1299 -32 -1300 0
-1299 32 1300 0
1299 -32 1300 0
1299 32 -1300 0
-1300 -38 -1301 0
-1300 38 1301 0
1300 -38 1301 0
1300 38 -1301 0
-1301 -40 -1302 0
-1301 40 1302 0
1301 -40 1302 0
1301 40 -1302 0
1291 1302 0
-13 -18 -1303 0
-13 18 1303 0
13 -18 1303 0
13 18 -1303 0
-1303 -20 -1304 0
-1303 20 1304 0
1303 -20 1304 0
1303 20 -1304 0
-1304 -23 -1305 0
-1304 23 1305 0
1304 -23 1305 0
1304 23 -1305 0
-1305 -28 -1306 0
-1305 28 1306 0
1305 -28 1306 0
1305 28 -1306 0
-1306 -30 -1307 0
-1306 30 1307 0
1306 -30 1307 0
1306 30 -1307 0
-3 -8 -1308 0
-3 8 1308 0
3 -8 1308 0
3 8 -1308 0
-1308 -10 -1309 0
-1308 10 1309 0
1308 -10 1309 0
1308 10 -1309 0
-1309 -33 -1310 0
-1309 33 1310 0
1309 -33 1310 0
1309 33 -1310 0
-1310 -38 -1311 0
-1310 38 1311 0
1310 -38 1311 0
1310 38 -1311 0
-1311 -40 -1312 0
-1311 40 1312 0
1311 -40 1312 0
1311 40 -1312 0
1307 1312 0
-1 -5 -1313 0
-1 5 1313 0
1 -5 1313 0
1 5 -1313 0
-1313 -8 -1314 0
-1313 8 1314 0
1313 -8 1314 0
1313 8 -1314 0
-1314 -10 -1315 0
-1314 10 1315 0
1314 -10 1315 0
1314 10 -1315 0
-1315 -21 -1316 0
-1315 21 1316 0
1315 -21 1316 0
1315 21 -1316 0
-1316 -25 -1317 0
-1316 25 1317 0
1316 -25 1317 0
1316 25 -1317 0
-1317 -28 -1318 0
-1317 28 1318 0
1317 -28 1318 0
1317 28 -1318 0
-1318 -30 -1319 0
-1318 30 1319 0
1318 -30 1319 0
1318 30 -1319 0
-11 -15 -1320 0
-11 15 1320 0
11 -15 1320 0
11 15 -1320 0
-1320 -18 -1321 0
-1320 18 1321 0
1320 -18 1321 0
1320 18 -1321 0
-1321 -20 -1322 0
-1321 20 1322 0
1321 -20 1322 0
1321 20 -1322 0
-1322 -31 -1323 0
-1322 31 1323 0
1322 -31 1323 0
1322 31 -1323 0
-1323 -35 -1324 0
-1323 35 1324 0
1323 -35 1324 0
1323 35 -1324 0
-1324 -38 -1325 0
-1324 38 1325 0
1324 -38 1325 0
1324 38 -1325 0
-1325 -40 -1326 0
-1325 40 1326 0
1325 -40 1326 0
1325 40 -1326 0
1319 1326 0
-4 -5 -1327 0
-4 5 1327 0
4 -5 1327 0
4 5 -1327 0
-1327 -6 -1328 0
-1327 6 1328 0
1327 -6 1328 0
1327 6 -1328 0
-1328 -8 -1329 0
-1328 8 1329 0
1328 -8 1329 0
1328 8 -1329 0
-1329 -10 -1330 0
-1329 10 1330 0
1329 -10 1330 0
1329 10 -1330 0
-1330 -14 -1331 0
-1330 14 1331 0
1330 -14 1331 0
1330 14 -1331 0
-1331 -15 -1332 0
-1331 15 1332 0
1331 -15 1332 0
1331 15 -1332 0
-1332 -16 -1333 0
-1332 16 1333 0
1332 -16 1333 0
1332 16 -1333 0
-1333 -18 -1334 0
-1333 18 1334 0
1333 -18 1334 0
1333 18 -1334 0
-1334 -20 -1335 0
-1334 20 1335 0
1334 -20 1335 0
1334 20 -1335 0
-1335 -24 -1336 0
-1335 24 1336 0
1335 -24 1336 0
1335 24 -1336 0
-1336 -25 -1337 0
-1336 25 1337 0
1336 -25 1337 0
1336 25 -1337 0
-1337 -26 -1338 0
-1337 26 1338 0
1337 -26 1338 0
1337 26 -1338 0
-1338 -28 -1339 0
-1338 28 1339 0
1338 -28 1339 0
1338 28 -1339 0
-1339 -30 -1340 0
-1339 30 1340 0
1339 -30 1340 0
1339 30 -1340 0
-14 -15 -1341 0
-14 15 1341 0
14 -15 1341 0
14 15 -1341 0
-1341 -16 -1342 0
-1341 16 1342 0
1341 -16 1342 0
1341 16 -1342 0
-1342 -18 -1343 0
-1342 18 1343 0
1342 -18 1343 0
1342 18 -1343 0
-1343 -20 -1344 0
-1343 20 1344 0
1343 -20 1344 0
1343 20 -1344 0
-1344 -34 -1345 0
-1344 34 1345 0
1344 -34 1345 0
1344 34 -1345 0
-1345 -35 -1346 0
-1345 35 1346 0
1345 -35 1346 0
1345 35 -1346 0
-1346 -36 -1347 0
-1346 36 1347 0
1346 -36 1347 0
1346 36 -1347 0
-1347 -38 -1348 0
-1347 38 1348 0
1347 -38 1348 0
1347 38 -1348 0
-1348 -40 -1349 0
-1348 40 1349 0
1348 -40 1349 0
1348 40 -1349 0
1340 1349 0
-11 -13 -1350 0
-11 13 1350 0
11 -13 1350 0
11 13 -1350 0
-1350 -14 -1351 0
-1350 14 1351 0
1350 -14 1351 0
1350 14 -1351 0
-1351 -15 -1352 0
-1351 15 1352 0
1351 -15 1352 0
1351 15 -1352 0
-1352 -17 -1353 0
-1352 17 1353 0
1352 -17 1353 0
1352 17 -1353 0
-1353 -18 -1354 0
-1353 18 1354 0
1353 -18 1354 0
1353 18 -1354 0
-1354 -20 -1355 0
-1354 20 1355 0
1354 -20 1355 0
1354 20 -1355 0
-1355 -21 -1356 0
-1355 21 1356 0
1355 -21 1356 0
1355 21 -1356 0
-1356 -23 -1357 0
-1356 23 1357 0
1356 -23 1357 0
1356 23 -1357 0
-1357 -24 -1358 0
-1357 24 1358 0
1357 -24 1358 0
1357 24 -1358 0
-1358 -25 -1359 0
-1358 25 1359 0
1358 -25 1359 0
1358 25 -1359 0
-1359 -27 -1360 0
-1359 27 1360 0
1359 -27 1360 0
1359 27 -1360 0
-1360 -28 -1361 0
-1360 28 1361 0
1360 -28 1361 0
1360 28 -1361 0
-1361 -30 -1362 0
-1361 30 1362 0
1361 -30 1362 0
1361 30 -1362 0
-1 -3 -1363 0
-1 3 1363 0
1 -3 1363 0
1 3 -1363 0
-1363 -4 -1364 0
-1363 4 1364 0
1363 -4 1364 0
1363 4 -1364 0
-1364 -5 -1365 0
-1364 5 1365 0
1364 -5 1365 0
1364 5 -1365 0
-1365 -7 -1366 0
-1365 7 1366 0
1365 -7 1366 0
1365 7 -1366 0
-1366 -8 -1367 0
-1366 8 1367 0
1366 -8 1367 0
1366 8 -1367 0
-1367 -10 -1368 0
-1367 10 1368 0
1367 -10 1368 0
1367 10 -1368 0
-1368 -11 -1369 0
-1368 11 1369 0
1368 -11 1369 0
1368 11 -1369 0
-1369 -13 -1370 0
-1369 13 1370 0
1369 -13 1370 0
1369 13 -1370 0
-1370 -14 -1371 0
-1370 14 1371 0
1370 -14 1371 0
1370 14 -1371 0
-1371 -15 -1372 0
-1371 15 1372 0
1371 -15 1372 0
1371 15 -1372 0
-1372 -17 -1373 0
-1372 17 1373 0
1372 -17 1373 0
1372 17 -1373 0
-1373 -18 -1374 0
-1373 18 1374 0
1373 -18 1374 0
1373 18 -1374 0
-1374 -20 -1375 0
-1374 20 1375 0
1374 -20 1375 0
1374 20 -1375 0
-1375 -31 -1376 0
-1375 31 1376 0
1375 -31 1376 0
1375 31 -1376 0
-1376 -33 -1377 0
-1376 33 1377 0
1376 -33 1377 0
1376 33 -1377 0
-1377 -34 -1378 0
-1377 34 1378 0
1377 -34 1378 0
1377 34 -1378 0
-1378 -35 -1379 0
-1378 35 1379 0
1378 -35 1379 0
1378 35 -1379 0
-1379 -37 -1380 0
-1379 37 1380 0
1379 -37 1380 0
1379 37 -1380 0
-1380 -38 -1381 0
-1380 38 1381 0
1380 -38 1381 0
1380 38 -1381 0
-1381 -40 -1382 0
-1381 40 1382 0
1381 -40 1382 0
1381 40 -1382 0
1362 1382 0
-1 -2 -1383 0
-1 2 1383 0
1 -2 1383 0
1 2 -1383 0
-1383 -3 -1384 0
-1383 3 1384 0
1383 -3 1384 0
1383 3 -1384 0
-1384 -4 -1385 0
-1384 4 1385 0
1384 -4 1385 0
1384 4 -1385 0
-1385 -5 -1386 0
-1385 5 1386 0
1385 -5 1386 0
1385 5 -1386 0
-1386 -6 -1387 0
-1386 6 1387 0
1386 -6 1387 0
1386 6 -1387 0
-1387 -7 -1388 0
-1387 7 1388 0
1387 -7 1388 0
1387 7 -1388 0
-1388 -8 -1389 0
-1388 8 1389 0
1388 -8 1389 0
1388 8 -1389 0
-1389 -10 -1390 0
-1389 10 1390 0
1389 -10 1390 0
1389 10 -1390 0
-1390 -11 -1391 0
-1390 11 1391 0
1390 -11 1391 0
1390 11 -1391 0
-1391 -12 -1392 0
-1391 12 1392 0
1391 -12 1392 0
1391 12 -1392 0
-1392 -13 -1393 0
-1392 13 1393 0
1392 -13 1393 0
1392 13 -1393 0
-1393 -14 -1394 0
-1393 14 1394 0
1393 -14 1394 0
1393 14 -1394 0
-1394 -15 -1395 0
-1394 15 1395 0
1394 -15 1395 0
1394 15 -1395 0
-1395 -16 -1396 0
-1395 16 1396 0
1395 -16 1396 0
1395 16 -1396 0
-1396 -17 -1397 0
-1396 17 1397 0
1396 -17 1397 0
1396 17 -1397 0
-1397 -18 -1398 0
-1397 18 1398 0
1397 -18 1398 0
1397 18 -1398 0
-1398 -20 -1399 0
-1398 20 1399 0
1398 -20 1399 0
1398 20 -1399 0
-1399 -21 -1400 0
-1399 21 1400 0
1399 -21 1400 0
1399 21 -1400 0
-1400 -22 -1401 0
-1400 22 1401 0
1400 -22 1401 0
1400 22 -1401 0
-1401 -23 -1402 0
-1401 23 1402 0
1401 -23 1402 0
1401 23 -1402 0
-1402 -24 -1403 0
-1402 24 1403 0
1402 -24 1403 0
1402 24 -1403 0
-1403 -25 -1404 0
-1403 25 1404 0
1403 -25 1404 0
1403 25 -1404 0
-1404 -26 -1405 0
-1404 26 1405 0
1404 -26 1405 0
1404 26 -1405 0
-1405 -27 -1406 0
-1405 27 1406 0
1405 -27 1406 0
1405 27 -1406 0
-1406 -28 -1407 0
-1406 28 1407 0
1406 -28 1407 0
1406 28 -1407 0
-1407 -30 -1408 0
-1407 30 1408 0
1407 -30 1408 0
1407 30 -1408 0
-1 -2 -1409 0
-1 2 1409 0
1 -2 1409 0
1 2 -1409 0
-1409 -3 -1410 0
-1409 3 1410 0
1409 -3 1410 0
1409 3 -1410 0
-1410 -4 -1411 0
-1410 4 1411 0
1410 -4 1411 0
1410 4 -1411 0
-1411 -5 -1412 0
-1411 5 1412 0
1411 -5 1412 0
1411 5 -1412 0
-1412 -6 -1413 0
-1412 6 1413 0
1412 -6 1413 0
1412 6 -1413 0
-1413 -7 -1414 0
-1413 7 1414 0
1413 -7 1414 0
1413 7 -1414 0
-1414 -8 -1415 0
-1414 8 1415 0
1414 -8 1415 0
1414 8 -1415 0
-1415 -10 -1416 0
-1415 10 1416 0
1415 -10 1416 0
1415 10 -1416 0
-1416 -31 -1417 0
-1416 31 1417 0
1416 -31 1417 0
1416 31 -1417 0
-1417 -32 -1418 0
-1417 32 1418 0
1417 -32 1418 0
1417 32 -1418 0
-1418 -33 -1419 0
-1418 33 1419 0
1418 -33 1419 0
1418 33 -1419 0
-1419 -34 -1420 0
-1419 34 1420 0
1419 -34 1420 0
1419 34 -1420 0
-1420 -35 -1421 0
-1420 35 1421 0
1420 -35 1421 0
1420 35 -1421 0
-1421 -36 -1422 0
-1421 36 1422 0
1421 -36 1422 0
1421 36 -1422 0
-1422 -37 -1423 0
-1422 37 1423 0
1422 -37 1423 0
1422 37 -1423 0
-1423 -38 -1424 0
-1423 38 1424 0
1423 -38 1424 0
1423 38 -1424 0
-1424 -40 -1425 0
-1424 40 1425 0
1424 -40 1425 0
1424 40 -1425 0
1408 1425 0
-24 -29 -1426 0
-24 29 1426 0
24 -29 1426 0
24 29 -1426 0
-1426 -30 -1427 0
-1426 30 1427 0
1426 -30 1427 0
1426 30 -1427 0
-4 -9 -1428 0
-4 9 1428 0
4 -9 1428 0
4 9 -1428 0
-1428 -10 -1429 0
-1428 10 1429 0
1428 -10 1429 0
1428 10 -1429 0
-1429 -14 -1430 0
-1429 14 1430 0
1429 -14 1430 0
1429 14 -1430 0
-1430 -19 -1431 0
-1430 19 1431 0
1430 -19 1431 0
1430 19 -1431 0
-1431 -20 -1432 0
-1431 20 1432 0
1431 -20 1432 0
1431 20 -1432 0
-1432 -34 -1433 0
-1432 34 1433 0
1432 -34 1433 0
1432 34 -1433 0
-1433 -39 -1434 0
-1433 39 1434 0
1433 -39 1434 0
1433 39 -1434 0
-1434 -40 -1435 0
-1434 40 1435 0
1434 -40 1435 0
1434 40 -1435 0
1427 1435 0
-1 -2 -1436 0
-1 2 1436 0
1 -2 1436 0
1 2 -1436 0
-1436 -3 -1437 0
-1436 3 1437 0
1436 -3 1437 0
1436 3 -1437 0
-1437 -4 -1438 0
-1437 4 1438 0
1437 -4 1438 0
1437 4 -1438 0
-1438 -9 -1439 0
-1438 9 1439 0
1438 -9 1439 0
1438 9 -1439 0
-1439 -10 -1440 0
-1439 10 1440 0
1439 -10 1440 0
1439 10 -1440 0
-1440 -21 -1441 0
-1440 21 1441 0
1440 -21 1441 0
1440 21 -1441 0
-1441 -22 -1442 0
-1441 22 1442 0
1441 -22 1442 0
1441 22 -1442 0
-1442 -23 -1443 0
-1442 23 1443 0
1442 -23 1443 0
1442 23 -1443 0
-1443 -24 -1444 0
-1443 24 1444 0
1443 -24 1444 0
1443 24 -1444 0
-1444 -29 -1445 0
-1444 29 1445 0
1444 -29 1445 0
1444 29 -1445 0
-1445 -30 -1446 0
-1445 30 1446 0
1445 -30 1446 0
1445 30 -1446 0
-31 -32 -1447 0
-31 32 1447 0
31 -32 1447 0
31 32 -1447 0
-1447 -33 -1448 0
-1447 33 1448 0
1447 -33 1448 0
1447 33 -1448 0
-1448 -34 -1449 0
-1448 34 1449 0
1448 -34 1449 0
1448 34 -1449 0
-1449 -39 -1450 0
-1449 39 1450 0
1449 -39 1450 0
1449 39 -1450 0
-1450 -40 -1451 0
-1450 40 1451 0
1450 -40 1451 0
1450 40 -1451 0
1446 1451 0
-1 -3 -1452 0
-1 3 1452 0
1 -3 1452 0
1 3 -1452 0
-1452 -4 -1453 0
-1452 4 1453 0
1452 -4 1453 0
1452 4 -1453 0
-1453 -5 -1454 0
-1453 5 1454 0
1453 -5 1454 0
1453 5 -1454 0
-1454 -9 -1455 0
-1454 9 1455 0
1454 -9 1455 0
1454 9 -1455 0
-1455 -10 -1456 0
-1455 10 1456 0
1455 -10 1456 0
1455 10 -1456 0
-1456 -21 -1457 0
-1456 21 1457 0
1456 -21 1457 0
1456 21 -1457 0
-1457 -23 -1458 0
-1457 23 1458 0
1457 -23 1458 0
1457 23 -1458 0
-1458 -24 -1459 0
-1458 24 1459 0
1458 -24 1459 0
1458 24 -1459 0
-1459 -25 -1460 0
-1459 25 1460 0
1459 -25 1460 0
1459 25 -1460 0
-1460 -29 -1461 0
-1460 29 1461 0
1460 -29 1461 0
1460 29 -1461 0
-1461 -30 -1462 0
-1461 30 1462 0
1461 -30 1462 0
1461 30 -1462 0
-11 -13 -1463 0
-11 13 1463 0
11 -13 1463 0
11 13 -1463 0
-1463 -14 -1464 0
-1463 14 1464 0
1463 -14 1464 0
1463 14 -1464 0
-1464 -15 -1465 0
-1464 15 1465 0
1464 -15 1465 0
1464 15 -1465 0
-1465 -19 -1466 0
-1465 19 1466 0
1465 -19 1466 0
1465 19 -1466 0
-1466 -20 -1467 0
-1466 20 1467 0
1466 -20 1467 0
1466 20 -1467 0
-1467 -31 -1468 0
-1467 31 1468 0
1467 -31 1468 0
1467 31 -1468 0
-1468 -33 -1469 0
-1468 33 1469 0
1468 -33 1469 0
1468 33 -1469 0
-1469 -34 -1470 0
-1469 34 1470 0
1469 -34 1470 0
1469 34 -1470 0
-1470 -35 -1471 0
-1470 35 1471 0
1470 -35 1471 0
1470 35 -1471 0
-1471 -39 -1472 0
-1471 39 1472 0
1471 -39 1472 0
1471 39 -1472 0
-1472 -40 -1473 0
-1472 40 1473 0
1472 -40 1473 0
1472 40 -1473 0
1462 1473 0
-3 -4 -1474 0
-3 4 1474 0
3 -4 1474 0
3 4 -1474 0
-1474 -6 -1475 0
-1474 6 1475 0
1474 -6 1475 0
1474 6 -1475 0
-1475 -9 -1476 0
-1475 9 1476 0
1475 -9 1476 0
1475 9 -1476 0
-1476 -10 -1477 0
-1476 10 1477 0
1476 -10 1477 0
1476 10 -1477 0
-1477 -13 -1478 0
-1477 13 1478 0
1477 -13 1478 0
1477 13 -1478 0
-1478 -14 -1479 0
-1478 14 1479 0
1478 -14 1479 0
1478 14 -1479 0
-1479 -16 -1480 0
-1479 16 1480 0
1479 -16 1480 0
1479 16 -1480 0
-1480 -19 -1481 0
-1480 19 1481 0
1480 -19 1481 0
1480 19 -1481 0
-1481 -20 -1482 0
-1481 20 1482 0
1481 -20 1482 0
1481 20 -1482 0
-1482 -23 -1483 0
-1482 23 1483 0
1482 -23 1483 0
1482 23 -1483 0
-1483 -24 -1484 0
-1483 24 1484 0
1483 -24 1484 0
1483 24 -1484 0
-1484 -26 -1485 0
-1484 26 1485 0
1484 -26 1485 0
1484 26 -1485 0
-1485 -29 -1486 0
-1485 29 1486 0
1485 -29 1486 0
1485 29 -1486 0
-1486 -30 -1487 0
-1486 30 1487 0
1486 -30 1487 0
1486 30 -1487 0
-13 -14 -1488 0
-13 14 1488 0
13 -14 1488 0
13 14 -1488 0
-1488 -16 -1489 0
-1488 16 1489 0
1488 -16 1489 0
1488 16 -1489 0
-1489 -19 -1490 0
-1489 19 1490 0
1489 -19 1490 0
1489 19 -1490 0
-1490 -20 -1491 0
-1490 20 1491 0
1490 -20 1491 0
1490 20 -1491 0
-1491 -33 -1492 0
-1491 33 1492 0
1491 -33 1492 0
1491 33 -1492 0
-1492 -34 -1493 0
-1492 34 1493 0
1492 -34 1493 0
1492 34 -1493 0
-1493 -36 -1494 0
-1493 36 1494 0
1493 -36 1494 0
1493 36 -1494 0
-1494 -39 -1495 0
-1494 39 1495 0
1494 -39 1495 0
1494 39 -1495 0
-1495 -40 -1496 0
-1495 40 1496 0
1495 -40 1496 0
1495 40 -1496 0
1487 1496 0
-13 -15 -1497 0
-13 15 1497 0
13 -15 1497 0
13 15 -1497 0
-1497 -16 -1498 0
-1497 16 1498 0
1497 -16 1498 0
1497 16 -1498 0
-1498 -19 -1499 0
-1498 19 1499 0
1498 -19 1499 0
1498 19 -1499 0
-1499 -20 -1500 0
-1499 20 1500 0
1499 -20 1500 0
1499 20 -1500 0
-1500 -23 -1501 0
-1500 23 1501 0
1500 -23 1501 0
1500 23 -1501 0
-1501 -25 -1502 0
-1501 25 1502 0
1501 -25 1502 0
1501 25 -1502 0
-1502 -26 -1503 0
-1502 26 1503 0
1502 -26 1503 0
1502 26 -1503 0
-1503 -29 -1504 0
-1503 29 1504 0
1503 -29 1504 0
1503 29 -1504 0
-1504 -30 -1505 0
-1504 30 1505 0
1504 -30 1505 0
1504 30 -1505 0
-13 -15 -1506 0
-13 15 1506 0
13 -15 1506 0
13 15 -1506 0
-1506 -16 -1507 0
-1506 16 1507 0
1506 -16 1507 0
1506 16 -1507 0
-1507 -19 -1508 0
-1507 19 1508 0
1507 -19 1508 0
1507 19 -1508 0
-1508 -20 -1509 0
-1508 20 1509 0
1508 -20 1509 0
1508 20 -1509 0
-1509 -33 -1510 0
-1509 33 1510 0
1509 -33 1510 0
1509 33 -1510 0
-1510 -35 -1511 0
-1510 35 1511 0
1510 -35 1511 0
1510 35 -1511 0
-1511 -36 -1512 0
-1511 36 1512 0
1511 -36 1512 0
1511 36 -1512 0
-1512 -39 -1513 0
-1512 39 1513 0
1512 -39 1513 0
1512 39 -1513 0
-1513 -40 -1514 0
-1513 40 1514 0
1513 -40 1514 0
1513 40 -1514 0
1505 1514 0
-1 -2 -1515 0
-1 2 1515 0
1 -2 1515 0
1 2 -1515 0
-1515 -3 -1516 0
-1515 3 1516 0
1515 -3 1516 0
1515 3 -1516 0
-1516 -5 -1517 0
-1516 5 1517 0
1516 -5 1517 0
1516 5 -1517 0
-1517 -6 -1518 0
-1517 6 1518 0
1517 -6 1518 0
1517 6 -1518 0
-1518 -9 -1519 0
-1518 9 1519 0
1518 -9 1519 0
1518 9 -1519 0
-1519 -10 -1520 0
-1519 10 1520 0
1519 -10 1520 0
1519 10 -1520 0
-1520 -11 -1521 0
-1520 11 1521 0
1520 -11 1521 0
1520 11 -1521 0
-1521 -12 -1522 0
-1521 12 1522 0
1521 -12 1522 0
1521 12 -1522 0
-1522 -13 -1523 0
-1522 13 1523 0
1522 -13 1523 0
1522 13 -1523 0
-1523 -15 -1524 0
-1523 15 1524 0
1523 -15 1524 0
1523 15 -1524 0
-1524 -16 -1525 0
-1524 16 1525 0
1524 -16 1525 0
1524 16 -1525 0
-1525 -19 -1526 0
-1525 19 1526 0
1525 -19 1526 0
1525 19 -1526 0
-1526 -20 -1527 0
-1526 20 1527 0
1526 -20 1527 0
1526 20 -1527 0
-1527 -21 -1528 0
-1527 21 1528 0
1527 -21 1528 0
1527 21 -1528 0
-1528 -22 -1529 0
-1528 22 1529 0
1528 -22 1529 0
1528 22 -1529 0
-1529 -23 -1530 0
-1529 23 1530 0
1529 -23 1530 0
1529 23 -1530 0
-1530 -25 -1531 0
-1530 25 1531 0
1530 -25 1531 0
1530 25 -1531 0
-1531 -26 -1532 0
-1531 26 1532 0
1531 -26 1532 0
1531 26 -1532 0
-1532 -29 -1533 0
-1532 29 1533 0
1532 -29 1533 0
1532 29 -1533 0
-1533 -30 -1534 0
-1533 30 1534 0
1533 -30 1534 0
1533 30 -1534 0
-31 -32 -1535 0
-31 32 1535 0
31 -32 1535 0
31 32 -1535 0
-1535 -33 -1536 0
-1535 33 1536 0
1535 -33 1536 0
1535 33 -1536 0
-1536 -35 -1537 0
-1536 35 1537 0
1536 -35 1537 0
1536 35 -1537 0
-1537 -36 -1538 0
-1537 36 1538 0
1537 -36 1538 0
1537 36 -1538 0
-1538 -39 -1539 0
-1538 39 1539 0
1538 -39 1539 0
1538 39 -1539 0
-1539 -40 -1540 0
-1539 40 1540 0
1539 -40 1540 0
1539 40 -1540 0
1534 1540 0
-3 -7 -1541 0
-3 7 1541 0
3 -7 1541 0
3 7 -1541 0
-1541 -9 -1542 0
-1541 9 1542 0
1541 -9 1542 0
1541 9 -1542 0
-1542 -10 -1543 0
-1542 10 1543 0
1542 -10 1543 0
1542 10 -1543 0
-1543 -13 -1544 0
-1543 13 1544 0
1543 -13 1544 0
1543 13 -1544 0
-1544 -17 -1545 0
-1544 17 1545 0
1544 -17 1545 0
1544 17 -1545 0
-1545 -19 -1546 0
-1545 19 1546 0
1545 -19 1546 0
1545 19 -1546 0
-1546 -20 -1547 0
-1546 20 1547 0
1546 -20 1547 0
1546 20 -1547 0
-1547 -23 -1548 0
-1547 23 1548 0
1547 -23 1548 0
1547 23 -1548 0
-1548 -27 -1549 0
-1548 27 1549 0
1548 -27 1549 0
1548 27 -1549 0
-1549 -29 -1550 0
-1549 29 1550 0
1549 -29 1550 0
1549 29 -1550 0
-1550 -30 -1551 0
-1550 30 1551 0
1550 -30 1551 0
1550 30 -1551 0
-3 -7 -1552 0
-3 7 1552 0
3 -7 1552 0
3 7 -1552 0
-1552 -9 -1553 0
-1552 9 1553 0
1552 -9 1553 0
1552 9 -1553 0
-1553 -10 -1554 0
-1553 10 1554 0
1553 -10 1554 0
1553 10 -1554 0
-1554 -33 -1555 0
-1554 33 1555 0
1554 -33 1555 0
1554 33 -1555 0
-1555 -37 -1556 0
-1555 37 1556 0
1555 -37 1556 0
1555 37 -1556 0
-1556 -39 -1557 0
-1556 39 1557 0
1556 -39 1557 0
1556 39 -1557 0
-1557 -40 -1558 0
-1557 40 1558 0
1557 -40 1558 0
1557 40 -1558 0
1551 1558 0
-22 -23 -1559 0
-22 23 1559 0
22 -23 1559 0
22 23 -1559 0
-1559 -24 -1560 0
-1559 24 1560 0
1559 -24 1560 0
1559 24 -1560 0
-1560 -25 -1561 0
-1560 25 1561 0
1560 -25 1561 0
1560 25 -1561 0
-1561 -27 -1562 0
-1561 27 1562 0
1561 -27 1562 0
1561 27 -1562 0
-1562 -29 -1563 0
-1562 29 1563 0
1562 -29 1563 0
1562 29 -1563 0
-1563 -30 -1564 0
-1563 30 1564 0
1563 -30 1564 0
1563 30 -1564 0
-32 -33 -1565 0
-32 33 1565 0
32 -33 1565 0
32 33 -1565 0
-1565 -34 -1566 0
-1565 34 1566 0
1565 -34 1566 0
1565 34 -1566 0
-1566 -35 -1567 0
-1566 35 1567 0
1566 -35 1567 0
1566 35 -1567 0
-1567 -37 -1568 0
-1567 37 1568 0
1567 -37 1568 0
1567 37 -1568 0
-1568 -39 -1569 0
-1568 39 1569 0
1568 -39 1569 0
1568 39 -1569 0
-1569 -40 -1570 0
-1569 40 1570 0
1569 -40 1570 0
1569 40 -1570 0
1564 1570 0
-1 -2 -1571 0
-1 2 1571 0
1 -2 1571 0
1 2 -1571 0
-1571 -4 -1572 0
-1571 4 1572 0
1571 -4 1572 0
1571 4 -1572 0
-1572 -6 -1573 0
-1572 6 1573 0
1572 -6 1573 0
1572 6 -1573 0
-1573 -7 -1574 0
-1573 7 1574 0
1573 -7 1574 0
1573 7 -1574 0
-1574 -9 -1575 0
-1574 9 1575 0
1574 -9 1575 0
1574 9 -1575 0
-1575 -10 -1576 0
-1575 10 1576 0
1575 -10 1576 0
1575 10 -1576 0
-1576 -11 -1577 0
-1576 11 1577 0
1576 -11 1577 0
1576 11 -1577 0
-1577 -12 -1578 0
-1577 12 1578 0
1577 -12 1578 0
1577 12 -1578 0
-1578 -14 -1579 0
-1578 14 1579 0
1578 -14 1579 0
1578 14 -1579 0
-1579 -16 -1580 0
-1579 16 1580 0
1579 -16 1580 0
1579 16 -1580 0
-1580 -17 -1581 0
-1580 17 1581 0
1580 -17 1581 0
1580 17 -1581 0
-1581 -19 -1582 0
-1581 19 1582 0
1581 -19 1582 0
1581 19 -1582 0
-1582 -20 -1583 0
-1582 20 1583 0
1582 -20 1583 0
1582 20 -1583 0
-1583 -21 -1584 0
-1583 21 1584 0
1583 -21 1584 0
1583 21 -1584 0
-1584 -22 -1585 0
-1584 22 1585 0
1584 -22 1585 0
1584 22 -1585 0
-1585 -24 -1586 0
-1585 24 1586 0
1585 -24 1586 0
1585 24 -1586 0
-1586 -26 -1587 0
-1586 26 1587 0
1586 -26 1587 0
1586 26 -1587 0
-1587 -27 -1588 0
-1587 27 1588 0
1587 -27 1588 0
1587 27 -1588 0
-1588 -29 -1589 0
-1588 29 1589 0
1588 -29 1589 0
1588 29 -1589 0
-1589 -30 -1590 0
-1589 30 1590 0
1589 -30 1590 0
1589 30 -1590 0
-1 -2 -1591 0
-1 2 1591 0
1 -2 1591 0
1 2 -1591 0
-1591 -4 -1592 0
-1591 4 1592 0
1591 -4 1592 0
1591 4 -1592 0
-1592 -6 -1593 0
-1592 6 1593 0
1592 -6 1593 0
1592 6 -1593 0
-1593 -7 -1594 0
-1593 7 1594 0
1593 -7 1594 0
1593 7 -1594 0
-1594 -9 -1595 0
-1594 9 1595 0
1594 -9 1595 0
1594 9 -1595 0
-1595 -10 -1596 0
-1595 10 1596 0
1595 -10 1596 0
1595 10 -1596 0
-1596 -11 -1597 0
-1596 11 1597 0
1596 -11 1597 0
1596 11 -1597 0
-1597 -12 -1598 0
-1597 12 1598 0
1597 -12 1598 0
1597 12 -1598 0
-1598 -14 -1599 0
-1598 14 1599 0
1598 -14 1599 0
1598 14 -1599 0
-1599 -16 -1600 0
-1599 16 1600 0
1599 -16 1600 0
1599 16 -1600 0
-1600 -17 -1601 0
-1600 17 1601 0
1600 -17 1601 0
1600 17 -1601 0
-1601 -19 -1602 0
-1601 19 1602 0
1601 -19 1602 0
1601 19 -1602 0
-1602 -20 -1603 0
-1602 20 1603 0
1602 -20 1603 0
1602 20 -1603 0
-1603 -31 -1604 0
-1603 31 1604 0
1603 -31 1604 0
1603 31 -1604 0
-1604 -32 -1605 0
-1604 32 1605 0
1604 -32 1605 0
1604 32 -1605 0
-1605 -34 -1606 0
-1605 34 1606 0
1605 -34 1606 0
1605 34 -1606 0
-1606 -36 -1607 0
-1606 36 1607 0
1606 -36 1607 0
1606 36 -1607 0
-1607 -37 -1608 0
-1607 37 1608 0
1607 -37 1608 0
1607 37 -1608 0
-1608 -39 -1609 0
-1608 39 1609 0
1608 -39 1609 0
1608 39 -1609 0
-1609 -40 -1610 0
-1609 40 1610 0
1609 -40 1610 0
1609 40 -1610 0
1590 1610 0
-11 -12 -1611 0
-11 12 1611 0
11 -12 1611 0
11 12 -1611 0
-1611 -13 -1612 0
-1611 13 1612 0
1611 -13 1612 0
1611 13 -1612 0
-1612 -15 -1613 0
-1612 15 1613 0
1612 -15 1613 0
1612 15 -1613 0
-1613 -16 -1614 0
-1613 16 1614 0
1613 -16 1614 0
1613 16 -1614 0
-1614 -17 -1615 0
-1614 17 1615 0
1614 -17 1615 0
1614 17 -1615 0
-1615 -19 -1616 0
-1615 19 1616 0
1615 -19 1616 0
1615 19 -1616 0
-1616 -20 -1617 0
-1616 20 1617 0
1616 -20 1617 0
1616 20 -1617 0
-1617 -21 -1618 0
-1617 21 1618 0
1617 -21 1618 0
1617 21 -1618 0
-1618 -22 -1619 0
-1618 22 1619 0
1618 -22 1619 0
1618 22 -1619 0
-1619 -23 -1620 0
-1619 23 1620 0
1619 -23 1620 0
1619 23 -1620 0
-1620 -25 -1621 0
-1620 25 1621 0
1620 -25 1621 0
1620 25 -1621 0
-1621 -26 -1622 0
-1621 26 1622 0
1621 -26 1622 0
1621 26 -1622 0
-1622 -27 -1623 0
-1622 27 1623 0
1622 -27 1623 0
1622 27 -1623 0
-1623 -29 -1624 0
-1623 29 1624 0
1623 -29 1624 0
1623 29 -1624 0
-1624 -30 -1625 0
-1624 30 1625 0
1624 -30 1625 0
1624 30 -1625 0
-1 -2 -1626 0
-1 2 1626 0
1 -2 1626 0
1 2 -1626 0
-1626 -3 -1627 0
-1626 3 1627 0
1626 -3 1627 0
1626 3 -1627 0
-1627 -5 -1628 0
-1627 5 1628 0
1627 -5 1628 0
1627 5 -1628 0
-1628 -6 -1629 0
-1628 6 1629 0
1628 -6 1629 0
1628 6 -1629 0
-1629 -7 -1630 0
-1629 7 1630 0
1629 -7 1630 0
1629 7 -1630 0
-1630 -9 -1631 0
-1630 9 1631 0
1630 -9 1631 0
1630 9 -1631 0
-1631 -10 -1632 0
-1631 10 1632 0
1631 -10 1632 0
1631 10 -1632 0
-1632 -11 -1633 0
-1632 11 1633 0
1632 -11 1633 0
1632 11 -1633 0
-1633 -12 -1634 0
-1633 12 1634 0
1633 -12 1634 0
1633 12 -1634 0
-1634 -13 -1635 0
-1634 13 1635 0
1634 -13 1635 0
1634 13 -1635 0
-1635 -15 -1636 0
-1635 15 1636 0
1635 -15 1636 0
1635 15 -1636 0
-1636 -16 -1637 0
-1636 16 1637 0
1636 -16 1637 0
1636 16 -1637 0
-1637 -17 -1638 0
-1637 17 1638 0
1637 -17 1638 0
1637 17 -1638 0
-1638 -19 -1639 0
-1638 19 1639 0
1638 -19 1639 0
1638 19 -1639 0
-1639 -20 -1640 0
-1639 20 1640 0
1639 -20 1640 0
1639 20 -1640 0
-1640 -31 -1641 0
-1640 31 1641 0
1640 -31 1641 0
1640 31 -1641 0
-1641 -32 -1642 0
-1641 32 1642 0
1641 -32 1642 0
1641 32 -1642 0
-1642 -33 -1643 0
-1642 33 1643 0
1642 -33 1643 0
1642 33 -1643 0
-1643 -35 -1644 0
-1643 35 1644 0
1643 -35 1644 0
1643 35 -1644 0
-1644 -36 -1645 0
-1644 36 1645 0
1644 -36 1645 0
1644 36 -1645 0
-1645 -37 -1646 0
-1645 37 1646 0
1645 -37 1646 0
1645 37 -1646 0
-1646 -39 -1647 0
-1646 39 1647 0
1646 -39 1647 0
1646 39 -1647 0
-1647 -40 -1648 0
-1647 40 1648 0
1647 -40 1648 0
1647 40 -1648 0
1625 1648 0
-12 -15 -1649 0
-12 15 1649 0
12 -15 1649 0
12 15 -1649 0
-1649 -16 -1650 0
-1649 16 1650 0
1649 -16 1650 0
1649 16 -1650 0
-1650 -18 -1651 0
-1650 18 1651 0
1650 -18 1651 0
1650 18 -1651 0
-1651 -19 -1652 0
-1651 19 1652 0
1651 -19 1652 0
1651 19 -1652 0
-1652 -20 -1653 0
-1652 20 1653 0
1652 -20 1653 0
1652 20 -1653 0
-1653 -22 -1654 0
-1653 22 1654 0
1653 -22 1654 0
1653 22 -1654 0
-1654 -25 -1655 0
-1654 25 1655 0
1654 -25 1655 0
1654 25 -1655 0
-1655 -26 -1656 0
-1655 26 1656 0
1655 -26 1656 0
1655 26 -1656 0
-1656 -28 -1657 0
-1656 28 1657 0
1656 -28 1657 0
1656 28 -1657 0
-1657 -29 -1658 0
-1657 29 1658 0
1657 -29 1658 0
1657 29 -1658 0
-1658 -30 -1659 0
-1658 30 1659 0
1658 -30 1659 0
1658 30 -1659 0
-32 -35 -1660 0
-32 35 1660 0
32 -35 1660 0
32 35 -1660 0
-1660 -36 -1661 0
-1660 36 1661 0
1660 -36 1661 0
1660 36 -1661 0
-1661 -38 -1662 0
-1661 38 1662 0
1661 -38 1662 0
1661 38 -1662 0
-1662 -39 -1663 0
-1662 39 1663 0
1662 -39 1663 0
1662 39 -1663 0
-1663 -40 -1664 0
-1663 40 1664 0
1663 -40 1664 0
1663 40 -1664 0
1659 1664 0
-21 -23 -1665 0
-21 23 1665 0
21 -23 1665 0
21 23 -1665 0
-1665 -24 -1666 0
-1665 24 1666 0
1665 -24 1666 0
1665 24 -1666 0
-1666 -25 -1667 0
-1666 25 1667 0
1666 -25 1667 0
1666 25 -1667 0
-1667 -26 -1668 0
-1667 26 1668 0
1667 -26 1668 0
1667 26 -1668 0
-1668 -28 -1669 0
-1668 28 1669 0
1668 -28 1669 0
1668 28 -1669 0
-1669 -29 -1670 0
-1669 29 1670 0
1669 -29 1670 0
1669 29 -1670 0
-1670 -30 -1671 0
-1670 30 1671 0
1670 -30 1671 0
1670 30 -1671 0
-1 -3 -1672 0
-1 3 1672 0
1 -3 1672 0
1 3 -1672 0
-1672 -4 -1673 0
-1672 4 1673 0
1672 -4 1673 0
1672 4 -1673 0
-1673 -5 -1674 0
-1673 5 1674 0
1673 -5 1674 0
1673 5 -1674 0
-1674 -6 -1675 0
-1674 6 1675 0
1674 -6 1675 0
1674 6 -1675 0
-1675 -8 -1676 0
-1675 8 1676 0
1675 -8 1676 0
1675 8 -1676 0
-1676 -9 -1677 0
-1676 9 1677 0
1676 -9 1677 0
1676 9 -1677 0
-1677 -10 -1678 0
-1677 10 1678 0
1677 -10 1678 0
1677 10 -1678 0
-1678 -31 -1679 0
-1678 31 1679 0
1678 -31 1679 0
1678 31 -1679 0
-1679 -33 -1680 0
-1679 33 1680 0
1679 -33 1680 0
1679 33 -1680 0
-1680 -34 -1681 0
-1680 34 1681 0
1680 -34 1681 0
1680 34 -1681 0
-1681 -35 -1682 0
-1681 35 1682 0
1681 -35 1682 0
1681 35 -1682 0
-1682 -36 -1683 0
-1682 36 1683 0
1682 -36 1683 0
1682 36 -1683 0
-1683 -38 -1684 0
-1683 38 1684 0
1683 -38 1684 0
1683 38 -1684 0
-1684 -39 -1685 0
-1684 39 1685 0
1684 -39 1685 0
1684 39 -1685 0
-1685 -40 -1686 0
-1685 40 1686 0
1685 -40 1686 0
1685 40 -1686 0
1671 1686 0
-12 -13 -1687 0
-12 13 1687 0
12 -13 1687 0
12 13 -1687 0
-1687 -17 -1688 0
-1687 17 1688 0
1687 -17 1688 0
1687 17 -1688 0
-1688 -18 -1689 0
-1688 18 1689 0
1688 -18 1689 0
1688 18 -1689 0
-1689 -19 -1690 0
-1689 19 1690 0
1689 -19 1690 0
1689 19 -1690 0
-1690 -20 -1691 0
-1690 20 1691 0
1690 -20 1691 0
1690 20 -1691 0
-1691 -22 -1692 0
-1691 22 1692 0
1691 -22 1692 0
1691 22 -1692 0
-1692 -23 -1693 0
-1692 23 1693 0
1692 -23 1693 0
1692 23 -1693 0
-1693 -27 -1694 0
-1693 27 1694 0
1693 -27 1694 0
1693 27 -1694 0
-1694 -28 -1695 0
-1694 28 1695 0
1694 -28 1695 0
1694 28 -1695 0
-1695 -29 -1696 0
-1695 29 1696 0
1695 -29 1696 0
1695 29 -1696 0
-1696 -30 -1697 0
-1696 30 1697 0
1696 -30 1697 0
1696 30 -1697 0
-2 -3 -1698 0
-2 3 1698 0
2 -3 1698 0
2 3 -1698 0
-1698 -7 -1699 0
-1698 7 1699 0
1698 -7 1699 0
1698 7 -1699 0
-1699 -8 -1700 0
-1699 8 1700 0
1699 -8 1700 0
1699 8 -1700 0
-1700 -9 -1701 0
-1700 9 1701 0
1700 -9 1701 0
1700 9 -1701 0
-1701 -10 -1702 0
-1701 10 1702 0
1701 -10 1702 0
1701 10 -1702 0
-1702 -32 -1703 0
-1702 32 1703 0
1702 -32 1703 0
1702 32 -1703 0
-1703 -33 -1704 0
-1703 33 1704 0
1703 -33 1704 0
1703 33 -1704 0
-1704 -37 -1705 0
-1704 37 1705 0
1704 -37 1705 0
1704 37 -1705 0
-1705 -38 -1706 0
-1705 38 1706 0
1705 -38 1706 0
1705 38 -1706 0
-1706 -39 -1707 0
-1706 39 1707 0
1706 -39 1707 0
1706 39 -1707 0
-1707 -40 -1708 0
-1707 40 1708 0
1707 -40 1708 0
1707 40 -1708 0
1697 1708 0
-2 -3 -1709 0
-2 3 1709 0
2 -3 1709 0
2 3 -1709 0
-1709 -4 -1710 0
-1709 4 1710 0
1709 -4 1710 0
1709 4 -1710 0
-1710 -7 -1711 0
-1710 7 1711 0
1710 -7 1711 0
1710 7 -1711 0
-1711 -8 -1712 0
-1711 8 1712 0
1711 -8 1712 0
1711 8 -1712 0
-1712 -9 -1713 0
-1712 9 1713 0
1712 -9 1713 0
1712 9 -1713 0
-1713 -10 -1714 0
-1713 10 1714 0
1713 -10 1714 0
1713 10 -1714 0
-1714 -22 -1715 0
-1714 22 1715 0
1714 -22 1715 0
1714 22 -1715 0
-1715 -23 -1716 0
-1715 23 1716 0
1715 -23 1716 0
1715 23 -1716 0
-1716 -24 -1717 0
-1716 24 1717 0
1716 -24 1717 0
1716 24 -1717 0
-1717 -27 -1718 0
-1717 27 1718 0
1717 -27 1718 0
1717 27 -1718 0
-1718 -28 -1719 0
-1718 28 1719 0
1718 -28 1719 0
1718 28 -1719 0
-1719 -29 -1720 0
-1719 29 1720 0
1719 -29 1720 0
1719 29 -1720 0
-1720 -30 -1721 0
-1720 30 1721 0
1720 -30 1721 0
1720 30 -1721 0
-2 -3 -1722 0
-2 3 1722 0
2 -3 1722 0
2 3 -1722 0
-1722 -4 -1723 0
-1722 4 1723 0
1722 -4 1723 0
1722 4 -1723 0
-1723 -7 -1724 0
-1723 7 1724 0
1723 -7 1724 0
1723 7 -1724 0
-1724 -8 -1725 0
-1724 8 1725 0
1724 -8 1725 0
1724 8 -1725 0
-1725 -9 -1726 0
-1725 9 1726 0
1725 -9 1726 0
1725 9 -1726 0
-1726 -10 -1727 0
-1726 10 1727 0
1726 -10 1727 0
1726 10 -1727 0
-1727 -12 -1728 0
-1727 12 1728 0
1727 -12 1728 0
1727 12 -1728 0
-1728 -13 -1729 0
-1728 13 1729 0
1728 -13 1729 0
1728 13 -1729 0
-1729 -14 -1730 0
-1729 14 1730 0
1729 -14 1730 0
1729 14 -1730 0
-1730 -17 -1731 0
-1730 17 1731 0
1730 -17 1731 0
1730 17 -1731 0
-1731 -18 -1732 0
-1731 18 1732 0
1731 -18 1732 0
1731 18 -1732 0
-1732 -19 -1733 0
-1732 19 1733 0
1732 -19 1733 0
1732 19 -1733 0
-1733 -20 -1734 0
-1733 20 1734 0
1733 -20 1734 0
1733 20 -1734 0
-1734 -32 -1735 0
-1734 32 1735 0
1734 -32 1735 0
1734 32 -1735 0
-1735 -33 -1736 0
-1735 33 1736 0
1735 -33 1736 0
1735 33 -1736 0
-1736 -34 -1737 0
-1736 34 1737 0
1736 -34 1737 0
1736 34 -1737 0
-1737 -37 -1738 0
-1737 37 1738 0
1737 -37 1738 0
1737 37 -1738 0
-1738 -38 -1739 0
-1738 38 1739 0
1738 -38 1739 0
1738 38 -1739 0
-1739 -39 -1740 0
-1739 39 1740 0
1739 -39 1740 0
1739 39 -1740 0
-1740 -40 -1741 0
-1740 40 1741 0
1740 -40 1741 0
1740 40 -1741 0
1721 1741 0
-21 -24 -1742 0
-21 24 1742 0
21 -24 1742 0
21 24 -1742 0
-1742 -25 -1743 0
-1742 25 1743 0
1742 -25 1743 0
1742 25 -1743 0
-1743 -27 -1744 0
-1743 27 1744 0
1743 -27 1744 0
1743 27 -1744 0
-1744 -28 -1745 0
-1744 28 1745 0
1744 -28 1745 0
1744 28 -1745 0
-1745 -29 -1746 0
-1745 29 1746 0
1745 -29 1746 0
1745 29 -1746 0
-1746 -30 -1747 0
-1746 30 1747 0
1746 -30 1747 0
1746 30 -1747 0
-11 -14 -1748 0
-11 14 1748 0
11 -14 1748 0
11 14 -1748 0
-1748 -15 -1749 0
-1748 15 1749 0
1748 -15 1749 0
1748 15 -1749 0
-1749 -17 -1750 0
-1749 17 1750 0
1749 -17 1750 0
1749 17 -1750 0
-1750 -18 -1751 0
-1750 18 1751 0
1750 -18 1751 0
1750 18 -1751 0
-1751 -19 -1752 0
-1751 19 1752 0
1751 -19 1752 0
1751 19 -1752 0
-1752 -20 -1753 0
-1752 20 1753 0
1752 -20 1753 0
1752 20 -1753 0
-1753 -31 -1754 0
-1753 31 1754 0
1753 -31 1754 0
1753 31 -1754 0
-1754 -34 -1755 0
-1754 34 1755 0
1754 -34 1755 0
1754 34 -1755 0
-1755 -35 -1756 0
-1755 35 1756 0
1755 -35 1756 0
1755 35 -1756 0
-1756 -37 -1757 0
-1756 37 1757 0
1756 -37 1757 0
1756 37 -1757 0
-1757 -38 -1758 0
-1757 38 1758 0
1757 -38 1758 0
1757 38 -1758 0
-1758 -39 -1759 0
-1758 39 1759 0
1758 -39 1759 0
1758 39 -1759 0
-1759 -40 -1760 0
-1759 40 1760 0
1759 -40 1760 0
1759 40 -1760 0
1747 1760 0
-2 -4 -1761 0
-2 4 1761 0
2 -4 1761 0
2 4 -1761 0
-1761 -6 -1762 0
-1761 6 1762 0
1761 -6 1762 0
1761 6 -1762 0
-1762 -7 -1763 0
-1762 7 1763 0
1762 -7 1763 0
1762 7 -1763 0
-1763 -8 -1764 0
-1763 8 1764 0
1763 -8 1764 0
1763 8 -1764 0
-1764 -9 -1765 0
-1764 9 1765 0
1764 -9 1765 0
1764 9 -1765 0
-1765 -10 -1766 0
-1765 10 1766 0
1765 -10 1766 0
1765 10 -1766 0
-1766 -22 -1767 0
-1766 22 1767 0
1766 -22 1767 0
1766 22 -1767 0
-1767 -24 -1768 0
-1767 24 1768 0
1767 -24 1768 0
1767 24 -1768 0
-1768 -26 -1769 0
-1768 26 1769 0
1768 -26 1769 0
1768 26 -1769 0
-1769 -27 -1770 0
-1769 27 1770 0
1769 -27 1770 0
1769 27 -1770 0
-1770 -28 -1771 0
-1770 28 1771 0
1770 -28 1771 0
1770 28 -1771 0
-1771 -29 -1772 0
-1771 29 1772 0
1771 -29 1772 0
1771 29 -1772 0
-1772 -30 -1773 0
-1772 30 1773 0
1772 -30 1773 0
1772 30 -1773 0
-2 -4 -1774 0
-2 4 1774 0
2 -4 1774 0
2 4 -1774 0
-1774 -6 -1775 0
-1774 6 1775 0
1774 -6 1775 0
1774 6 -1775 0
-1775 -7 -1776 0
-1775 7 1776 0
1775 -7 1776 0
1775 7 -1776 0
-1776 -8 -1777 0
-1776 8 1777 0
1776 -8 1777 0
1776 8 -1777 0
-1777 -9 -1778 0
-1777 9 1778 0
1777 -9 1778 0
1777 9 -1778 0
-1778 -10 -1779 0
-1778 10 1779 0
1778 -10 1779 0
1778 10 -1779 0
-1779 -32 -1780 0
-1779 32 1780 0
1779 -32 1780 0
1779 32 -1780 0
-1780 -34 -1781 0
-1780 34 1781 0
1780 -34 1781 0
1780 34 -1781 0
-1781 -36 -1782 0
-1781 36 1782 0
1781 -36 1782 0
1781 36 -1782 0
-1782 -37 -1783 0
-1782 37 1783 0
1782 -37 1783 0
1782 37 -1783 0
-1783 -38 -1784 0
-1783 38 1784 0
1783 -38 1784 0
1783 38 -1784 0
-1784 -39 -1785 0
-1784 39 1785 0
1784 -39 1785 0
1784 39 -1785 0
-1785 -40 -1786 0
-1785 40 1786 0
1785 -40 1786 0
1785 40 -1786 0
1773 1786 0
