p cnf                 1784                 7081
-2 -3 -41 0
-2 3 41 0
2 -3 41 0
2 3 -41 0
-41 -5 -42 0
-41 5 42 0
41 -5 42 0
41 5 -42 0
-42 -7 -43 0
-42 7 43 0
42 -7 43 0
42 7 -43 0
-32 -33 -44 0
-32 33 44 0
32 -33 44 0
32 33 -44 0
-44 -35 -45 0
-44 35 45 0
44 -35 45 0
44 35 -45 0
-45 -37 -46 0
-45 37 46 0
45 -37 46 0
45 37 -46 0
43 46 0
-2 -4 -47 0
-2 4 47 0
2 -4 47 0
2 4 -47 0
-47 -5 -48 0
-47 5 48 0
47 -5 48 0
47 5 -48 0
-48 -8 -49 0
-48 8 49 0
48 -8 49 0
48 8 -49 0
-12 -14 -50 0
-12 14 50 0
12 -14 50 0
12 14 -50 0
-50 -15 -51 0
-50 15 51 0
50 -15 51 0
50 15 -51 0
-51 -18 -52 0
-51 18 52 0
51 -18 52 0
51 18 -52 0
-52 -32 -53 0
-52 32 53 0
52 -32 53 0
52 32 -53 0
-53 -34 -54 0
-53 34 54 0
53 -34 54 0
53 34 -54 0
-54 -35 -55 0
-54 35 55 0
54 -35 55 0
54 35 -55 0
-55 -38 -56 0
-55 38 56 0
55 -38 56 0
55 38 -56 0
49 56 0
-1 -7 -57 0
-1 7 57 0
1 -7 57 0
1 7 -57 0
-57 -8 -58 0
-57 8 58 0
57 -8 58 0
57 8 -58 0
-11 -17 -59 0
-11 17 59 0
11 -17 59 0
11 17 -59 0
-59 -18 -60 0
-59 18 60 0
59 -18 60 0
59 18 -60 0
-60 -21 -61 0
-60 21 61 0
60 -21 61 0
60 21 -61 0
-61 -27 -62 0
-61 27 62 0
61 -27 62 0
61 27 -62 0
-62 -28 -63 0
-62 28 63 0
62 -28 63 0
62 28 -63 0
58 63 0
-1 -2 -64 0
-1 2 64 0
1 -2 64 0
1 2 -64 0
-64 -5 -65 0
-64 5 65 0
64 -5 65 0
64 5 -65 0
-65 -7 -66 0
-65 7 66 0
65 -7 66 0
65 7 -66 0
-66 -8 -67 0
-66 8 67 0
66 -8 67 0
66 8 -67 0
-21 -22 -68 0
-21 22 68 0
21 -22 68 0
21 22 -68 0
-68 -25 -69 0
-68 25 69 0
68 -25 69 0
68 25 -69 0
-69 -27 -70 0
-69 27 70 0
69 -27 70 0
69 27 -70 0
-70 -28 -71 0
-70 28 71 0
70 -28 71 0
70 28 -71 0
67 71 0
-2 -3 -72 0
-2 3 72 0
2 -3 72 0
2 3 -72 0
-72 -4 -73 0
-72 4 73 0
72 -4 73 0
72 4 -73 0
-73 -5 -74 0
-73 5 74 0
73 -5 74 0
73 5 -74 0
-74 -7 -75 0
-74 7 75 0
74 -7 75 0
74 7 -75 0
-75 -8 -76 0
-75 8 76 0
75 -8 76 0
75 8 -76 0
-12 -13 -77 0
-12 13 77 0
12 -13 77 0
12 13 -77 0
-77 -14 -78 0
-77 14 78 0
77 -14 78 0
77 14 -78 0
-78 -15 -79 0
-78 15 79 0
78 -15 79 0
78 15 -79 0
-79 -17 -80 0
-79 17 80 0
79 -17 80 0
79 17 -80 0
-80 -18 -81 0
-80 18 81 0
80 -18 81 0
80 18 -81 0
76 81 0
-2 -9 -82 0
-2 9 82 0
2 -9 82 0
2 9 -82 0
-12 -19 -83 0
-12 19 83 0
12 -19 83 0
12 19 -83 0
-83 -22 -84 0
-83 22 84 0
83 -22 84 0
83 22 -84 0
-84 -29 -85 0
-84 29 85 0
84 -29 85 0
84 29 -85 0
82 85 0
-1 -2 -86 0
-1 2 86 0
1 -2 86 0
1 2 -86 0
-86 -3 -87 0
-86 3 87 0
86 -3 87 0
86 3 -87 0
-87 -4 -88 0
-87 4 88 0
87 -4 88 0
87 4 -88 0
-88 -9 -89 0
-88 9 89 0
88 -9 89 0
88 9 -89 0
-11 -12 -90 0
-11 12 90 0
11 -12 90 0
11 12 -90 0
-90 -13 -91 0
-90 13 91 0
90 -13 91 0
90 13 -91 0
-91 -14 -92 0
-91 14 92 0
91 -14 92 0
91 14 -92 0
-92 -19 -93 0
-92 19 93 0
92 -19 93 0
92 19 -93 0
89 93 0
-1 -3 -94 0
-1 3 94 0
1 -3 94 0
1 3 -94 0
-94 -4 -95 0
-94 4 95 0
94 -4 95 0
94 4 -95 0
-95 -5 -96 0
-95 5 96 0
95 -5 96 0
95 5 -96 0
-96 -9 -97 0
-96 9 97 0
96 -9 97 0
96 9 -97 0
-21 -23 -98 0
-21 23 98 0
21 -23 98 0
21 23 -98 0
-98 -24 -99 0
-98 24 99 0
98 -24 99 0
98 24 -99 0
-99 -25 -100 0
-99 25 100 0
99 -25 100 0
99 25 -100 0
-100 -29 -101 0
-100 29 101 0
100 -29 101 0
100 29 -101 0
97 101 0
-2 -3 -102 0
-2 3 102 0
2 -3 102 0
2 3 -102 0
-102 -7 -103 0
-102 7 103 0
102 -7 103 0
102 7 -103 0
-103 -9 -104 0
-103 9 104 0
103 -9 104 0
103 9 -104 0
-12 -13 -105 0
-12 13 105 0
12 -13 105 0
12 13 -105 0
-105 -17 -106 0
-105 17 106 0
105 -17 106 0
105 17 -106 0
-106 -19 -107 0
-106 19 107 0
106 -19 107 0
106 19 -107 0
-107 -22 -108 0
-107 22 108 0
107 -22 108 0
107 22 -108 0
-108 -23 -109 0
-108 23 109 0
108 -23 109 0
108 23 -109 0
-109 -27 -110 0
-109 27 110 0
109 -27 110 0
109 27 -110 0
-110 -29 -111 0
-110 29 111 0
110 -29 111 0
110 29 -111 0
-111 -32 -112 0
-111 32 112 0
111 -32 112 0
111 32 -112 0
-112 -33 -113 0
-112 33 113 0
112 -33 113 0
112 33 -113 0
-113 -37 -114 0
-113 37 114 0
113 -37 114 0
113 37 -114 0
-114 -39 -115 0
-114 39 115 0
114 -39 115 0
114 39 -115 0
104 115 0
-2 -4 -116 0
-2 4 116 0
2 -4 116 0
2 4 -116 0
-116 -8 -117 0
-116 8 117 0
116 -8 117 0
116 8 -117 0
-117 -9 -118 0
-117 9 118 0
117 -9 118 0
117 9 -118 0
-22 -24 -119 0
-22 24 119 0
22 -24 119 0
22 24 -119 0
-119 -28 -120 0
-119 28 120 0
119 -28 120 0
119 28 -120 0
-120 -29 -121 0
-120 29 121 0
120 -29 121 0
120 29 -121 0
-121 -32 -122 0
-121 32 122 0
121 -32 122 0
121 32 -122 0
-122 -34 -123 0
-122 34 123 0
122 -34 123 0
122 34 -123 0
-123 -38 -124 0
-123 38 124 0
123 -38 124 0
123 38 -124 0
-124 -39 -125 0
-124 39 125 0
124 -39 125 0
124 39 -125 0
118 125 0
-1 -2 -126 0
-1 2 126 0
1 -2 126 0
1 2 -126 0
-126 -7 -127 0
-126 7 127 0
126 -7 127 0
126 7 -127 0
-127 -8 -128 0
-127 8 128 0
127 -8 128 0
127 8 -128 0
-128 -9 -129 0
-128 9 129 0
128 -9 129 0
128 9 -129 0
-11 -12 -130 0
-11 12 130 0
11 -12 130 0
11 12 -130 0
-130 -17 -131 0
-130 17 131 0
130 -17 131 0
130 17 -131 0
-131 -18 -132 0
-131 18 132 0
131 -18 132 0
131 18 -132 0
-132 -19 -133 0
-132 19 133 0
132 -19 133 0
132 19 -133 0
-133 -21 -134 0
-133 21 134 0
133 -21 134 0
133 21 -134 0
-134 -22 -135 0
-134 22 135 0
134 -22 135 0
134 22 -135 0
-135 -27 -136 0
-135 27 136 0
135 -27 136 0
135 27 -136 0
-136 -28 -137 0
-136 28 137 0
136 -28 137 0
136 28 -137 0
-137 -29 -138 0
-137 29 138 0
137 -29 138 0
137 29 -138 0
129 138 0
-2 -3 -139 0
-2 3 139 0
2 -3 139 0
2 3 -139 0
-139 -4 -140 0
-139 4 140 0
139 -4 140 0
139 4 -140 0
-140 -7 -141 0
-140 7 141 0
140 -7 141 0
140 7 -141 0
-141 -8 -142 0
-141 8 142 0
141 -8 142 0
141 8 -142 0
-142 -9 -143 0
-142 9 143 0
142 -9 143 0
142 9 -143 0
-22 -23 -144 0
-22 23 144 0
22 -23 144 0
22 23 -144 0
-144 -24 -145 0
-144 24 145 0
144 -24 145 0
144 24 -145 0
-145 -27 -146 0
-145 27 146 0
145 -27 146 0
145 27 -146 0
-146 -28 -147 0
-146 28 147 0
146 -28 147 0
146 28 -147 0
-147 -29 -148 0
-147 29 148 0
147 -29 148 0
147 29 -148 0
143 148 0
-1 -5 -149 0
-1 5 149 0
1 -5 149 0
1 5 -149 0
-149 -7 -150 0
-149 7 150 0
149 -7 150 0
149 7 -150 0
-150 -8 -151 0
-150 8 151 0
150 -8 151 0
150 8 -151 0
-151 -9 -152 0
-151 9 152 0
151 -9 152 0
151 9 -152 0
-11 -15 -153 0
-11 15 153 0
11 -15 153 0
11 15 -153 0
-153 -17 -154 0
-153 17 154 0
153 -17 154 0
153 17 -154 0
-154 -18 -155 0
-154 18 155 0
154 -18 155 0
154 18 -155 0
-155 -19 -156 0
-155 19 156 0
155 -19 156 0
155 19 -156 0
152 156 0
-1 -2 -157 0
-1 2 157 0
1 -2 157 0
1 2 -157 0
-157 -3 -158 0
-157 3 158 0
157 -3 158 0
157 3 -158 0
-158 -4 -159 0
-158 4 159 0
158 -4 159 0
158 4 -159 0
-159 -5 -160 0
-159 5 160 0
159 -5 160 0
159 5 -160 0
-160 -6 -161 0
-160 6 161 0
160 -6 161 0
160 6 -161 0
-161 -10 -162 0
-161 10 162 0
161 -10 162 0
161 10 -162 0
-21 -22 -163 0
-21 22 163 0
21 -22 163 0
21 22 -163 0
-163 -23 -164 0
-163 23 164 0
163 -23 164 0
163 23 -164 0
-164 -24 -165 0
-164 24 165 0
164 -24 165 0
164 24 -165 0
-165 -25 -166 0
-165 25 166 0
165 -25 166 0
165 25 -166 0
-166 -26 -167 0
-166 26 167 0
166 -26 167 0
166 26 -167 0
-167 -30 -168 0
-167 30 168 0
167 -30 168 0
167 30 -168 0
-168 -31 -169 0
-168 31 169 0
168 -31 169 0
168 31 -169 0
-169 -32 -170 0
-169 32 170 0
169 -32 170 0
169 32 -170 0
-170 -33 -171 0
-170 33 171 0
170 -33 171 0
170 33 -171 0
-171 -34 -172 0
-171 34 172 0
171 -34 172 0
171 34 -172 0
-172 -35 -173 0
-172 35 173 0
172 -35 173 0
172 35 -173 0
-173 -36 -174 0
-173 36 174 0
173 -36 174 0
173 36 -174 0
-174 -40 -175 0
-174 40 175 0
174 -40 175 0
174 40 -175 0
162 175 0
-1 -4 -176 0
-1 4 176 0
1 -4 176 0
1 4 -176 0
-176 -6 -177 0
-176 6 177 0
176 -6 177 0
176 6 -177 0
-177 -7 -178 0
-177 7 178 0
177 -7 178 0
177 7 -178 0
-178 -10 -179 0
-178 10 179 0
178 -10 179 0
178 10 -179 0
-11 -14 -180 0
-11 14 180 0
11 -14 180 0
11 14 -180 0
-180 -16 -181 0
-180 16 181 0
180 -16 181 0
180 16 -181 0
-181 -17 -182 0
-181 17 182 0
181 -17 182 0
181 17 -182 0
-182 -20 -183 0
-182 20 183 0
182 -20 183 0
182 20 -183 0
-183 -21 -184 0
-183 21 184 0
183 -21 184 0
183 21 -184 0
-184 -24 -185 0
-184 24 185 0
184 -24 185 0
184 24 -185 0
-185 -26 -186 0
-185 26 186 0
185 -26 186 0
185 26 -186 0
-186 -27 -187 0
-186 27 187 0
186 -27 187 0
186 27 -187 0
-187 -30 -188 0
-187 30 188 0
187 -30 188 0
187 30 -188 0
-188 -31 -189 0
-188 31 189 0
188 -31 189 0
188 31 -189 0
-189 -34 -190 0
-189 34 190 0
189 -34 190 0
189 34 -190 0
-190 -36 -191 0
-190 36 191 0
190 -36 191 0
190 36 -191 0
-191 -37 -192 0
-191 37 192 0
191 -37 192 0
191 37 -192 0
-192 -40 -193 0
-192 40 193 0
192 -40 193 0
192 40 -193 0
179 193 0
-1 -3 -194 0
-1 3 194 0
1 -3 194 0
1 3 -194 0
-194 -6 -195 0
-194 6 195 0
194 -6 195 0
194 6 -195 0
-195 -8 -196 0
-195 8 196 0
195 -8 196 0
195 8 -196 0
-196 -10 -197 0
-196 10 197 0
196 -10 197 0
196 10 -197 0
-31 -33 -198 0
-31 33 198 0
31 -33 198 0
31 33 -198 0
-198 -36 -199 0
-198 36 199 0
198 -36 199 0
198 36 -199 0
-199 -38 -200 0
-199 38 200 0
199 -38 200 0
199 38 -200 0
-200 -40 -201 0
-200 40 201 0
200 -40 201 0
200 40 -201 0
197 201 0
-1 -2 -202 0
-1 2 202 0
1 -2 202 0
1 2 -202 0
-202 -5 -203 0
-202 5 203 0
202 -5 203 0
202 5 -203 0
-203 -6 -204 0
-203 6 204 0
203 -6 204 0
203 6 -204 0
-204 -7 -205 0
-204 7 205 0
204 -7 205 0
204 7 -205 0
-205 -8 -206 0
-205 8 206 0
205 -8 206 0
205 8 -206 0
-206 -10 -207 0
-206 10 207 0
206 -10 207 0
206 10 -207 0
-31 -32 -208 0
-31 32 208 0
31 -32 208 0
31 32 -208 0
-208 -35 -209 0
-208 35 209 0
208 -35 209 0
208 35 -209 0
-209 -36 -210 0
-209 36 210 0
209 -36 210 0
209 36 -210 0
-210 -37 -211 0
-210 37 211 0
210 -37 211 0
210 37 -211 0
-211 -38 -212 0
-211 38 212 0
211 -38 212 0
211 38 -212 0
-212 -40 -213 0
-212 40 213 0
212 -40 213 0
212 40 -213 0
207 213 0
-1 -2 -214 0
-1 2 214 0
1 -2 214 0
1 2 -214 0
-214 -3 -215 0
-214 3 215 0
214 -3 215 0
214 3 -215 0
-215 -4 -216 0
-215 4 216 0
215 -4 216 0
215 4 -216 0
-216 -6 -217 0
-216 6 217 0
216 -6 217 0
216 6 -217 0
-217 -9 -218 0
-217 9 218 0
217 -9 218 0
217 9 -218 0
-218 -10 -219 0
-218 10 219 0
218 -10 219 0
218 10 -219 0
-11 -12 -220 0
-11 12 220 0
11 -12 220 0
11 12 -220 0
-220 -13 -221 0
-220 13 221 0
220 -13 221 0
220 13 -221 0
-221 -14 -222 0
-221 14 222 0
221 -14 222 0
221 14 -222 0
-222 -16 -223 0
-222 16 223 0
222 -16 223 0
222 16 -223 0
-223 -19 -224 0
-223 19 224 0
223 -19 224 0
223 19 -224 0
-224 -20 -225 0
-224 20 225 0
224 -20 225 0
224 20 -225 0
-225 -21 -226 0
-225 21 226 0
225 -21 226 0
225 21 -226 0
-226 -22 -227 0
-226 22 227 0
226 -22 227 0
226 22 -227 0
-227 -23 -228 0
-227 23 228 0
227 -23 228 0
227 23 -228 0
-228 -24 -229 0
-228 24 229 0
228 -24 229 0
228 24 -229 0
-229 -26 -230 0
-229 26 230 0
229 -26 230 0
229 26 -230 0
-230 -29 -231 0
-230 29 231 0
230 -29 231 0
230 29 -231 0
-231 -30 -232 0
-231 30 232 0
231 -30 232 0
231 30 -232 0
-232 -31 -233 0
-232 31 233 0
232 -31 233 0
232 31 -233 0
-233 -32 -234 0
-233 32 234 0
233 -32 234 0
233 32 -234 0
-234 -33 -235 0
-234 33 235 0
234 -33 235 0
234 33 -235 0
-235 -34 -236 0
-235 34 236 0
235 -34 236 0
235 34 -236 0
-236 -36 -237 0
-236 36 237 0
236 -36 237 0
236 36 -237 0
-237 -39 -238 0
-237 39 238 0
237 -39 238 0
237 39 -238 0
-238 -40 -239 0
-238 40 239 0
238 -40 239 0
238 40 -239 0
219 239 0
-1 -4 -240 0
-1 4 240 0
1 -4 240 0
1 4 -240 0
-240 -5 -241 0
-240 5 241 0
240 -5 241 0
240 5 -241 0
-241 -6 -242 0
-241 6 242 0
241 -6 242 0
241 6 -242 0
-242 -7 -243 0
-242 7 243 0
242 -7 243 0
242 7 -243 0
-243 -9 -244 0
-243 9 244 0
243 -9 244 0
243 9 -244 0
-244 -10 -245 0
-244 10 245 0
244 -10 245 0
244 10 -245 0
-11 -14 -246 0
-11 14 246 0
11 -14 246 0
11 14 -246 0
-246 -15 -247 0
-246 15 247 0
246 -15 247 0
246 15 -247 0
-247 -16 -248 0
-247 16 248 0
247 -16 248 0
247 16 -248 0
-248 -17 -249 0
-248 17 249 0
248 -17 249 0
248 17 -249 0
-249 -19 -250 0
-249 19 250 0
249 -19 250 0
249 19 -250 0
-250 -20 -251 0
-250 20 251 0
250 -20 251 0
250 20 -251 0
-251 -31 -252 0
-251 31 252 0
251 -31 252 0
251 31 -252 0
-252 -34 -253 0
-252 34 253 0
252 -34 253 0
252 34 -253 0
-253 -35 -254 0
-253 35 254 0
253 -35 254 0
253 35 -254 0
-254 -36 -255 0
-254 36 255 0
254 -36 255 0
254 36 -255 0
-255 -37 -256 0
-255 37 256 0
255 -37 256 0
255 37 -256 0
-256 -39 -257 0
-256 39 257 0
256 -39 257 0
256 39 -257 0
-257 -40 -258 0
-257 40 258 0
257 -40 258 0
257 40 -258 0
245 258 0
-1 -3 -259 0
-1 3 259 0
1 -3 259 0
1 3 -259 0
-259 -5 -260 0
-259 5 260 0
259 -5 260 0
259 5 -260 0
-260 -6 -261 0
-260 6 261 0
260 -6 261 0
260 6 -261 0
-261 -8 -262 0
-261 8 262 0
261 -8 262 0
261 8 -262 0
-262 -9 -263 0
-262 9 263 0
262 -9 263 0
262 9 -263 0
-263 -10 -264 0
-263 10 264 0
263 -10 264 0
263 10 -264 0
-21 -23 -265 0
-21 23 265 0
21 -23 265 0
21 23 -265 0
-265 -25 -266 0
-265 25 266 0
265 -25 266 0
265 25 -266 0
-266 -26 -267 0
-266 26 267 0
266 -26 267 0
266 26 -267 0
-267 -28 -268 0
-267 28 268 0
267 -28 268 0
267 28 -268 0
-268 -29 -269 0
-268 29 269 0
268 -29 269 0
268 29 -269 0
-269 -30 -270 0
-269 30 270 0
269 -30 270 0
269 30 -270 0
-270 -31 -271 0
-270 31 271 0
270 -31 271 0
270 31 -271 0
-271 -33 -272 0
-271 33 272 0
271 -33 272 0
271 33 -272 0
-272 -35 -273 0
-272 35 273 0
272 -35 273 0
272 35 -273 0
-273 -36 -274 0
-273 36 274 0
273 -36 274 0
273 36 -274 0
-274 -38 -275 0
-274 38 275 0
274 -38 275 0
274 38 -275 0
-275 -39 -276 0
-275 39 276 0
275 -39 276 0
275 39 -276 0
-276 -40 -277 0
-276 40 277 0
276 -40 277 0
276 40 -277 0
264 277 0
-1 -2 -278 0
-1 2 278 0
1 -2 278 0
1 2 -278 0
-278 -6 -279 0
-278 6 279 0
278 -6 279 0
278 6 -279 0
-279 -7 -280 0
-279 7 280 0
279 -7 280 0
279 7 -280 0
-280 -8 -281 0
-280 8 281 0
280 -8 281 0
280 8 -281 0
-281 -9 -282 0
-281 9 282 0
281 -9 282 0
281 9 -282 0
-282 -10 -283 0
-282 10 283 0
282 -10 283 0
282 10 -283 0
-11 -12 -284 0
-11 12 284 0
11 -12 284 0
11 12 -284 0
-284 -16 -285 0
-284 16 285 0
284 -16 285 0
284 16 -285 0
-285 -17 -286 0
-285 17 286 0
285 -17 286 0
285 17 -286 0
-286 -18 -287 0
-286 18 287 0
286 -18 287 0
286 18 -287 0
-287 -19 -288 0
-287 19 288 0
287 -19 288 0
287 19 -288 0
-288 -20 -289 0
-288 20 289 0
288 -20 289 0
288 20 -289 0
-289 -31 -290 0
-289 31 290 0
289 -31 290 0
289 31 -290 0
-290 -32 -291 0
-290 32 291 0
290 -32 291 0
290 32 -291 0
-291 -36 -292 0
-291 36 292 0
291 -36 292 0
291 36 -292 0
-292 -37 -293 0
-292 37 293 0
292 -37 293 0
292 37 -293 0
-293 -38 -294 0
-293 38 294 0
293 -38 294 0
293 38 -294 0
-294 -39 -295 0
-294 39 295 0
294 -39 295 0
294 39 -295 0
-295 -40 -296 0
-295 40 296 0
295 -40 296 0
295 40 -296 0
283 296 0
-1 -7 -297 0
-1 7 297 0
1 -7 297 0
1 7 -297 0
-297 -11 -298 0
-297 11 298 0
297 -11 298 0
297 11 -298 0
-298 -17 -299 0
-298 17 299 0
298 -17 299 0
298 17 -299 0
-1 -7 -300 0
-1 7 300 0
1 -7 300 0
1 7 -300 0
-300 -31 -301 0
-300 31 301 0
300 -31 301 0
300 31 -301 0
-301 -37 -302 0
-301 37 302 0
301 -37 302 0
301 37 -302 0
299 302 0
-1 -2 -303 0
-1 2 303 0
1 -2 303 0
1 2 -303 0
-303 -3 -304 0
-303 3 304 0
303 -3 304 0
303 3 -304 0
-304 -5 -305 0
-304 5 305 0
304 -5 305 0
304 5 -305 0
-305 -7 -306 0
-305 7 306 0
305 -7 306 0
305 7 -306 0
-306 -11 -307 0
-306 11 307 0
306 -11 307 0
306 11 -307 0
-307 -12 -308 0
-307 12 308 0
307 -12 308 0
307 12 -308 0
-308 -13 -309 0
-308 13 309 0
308 -13 309 0
308 13 -309 0
-309 -15 -310 0
-309 15 310 0
309 -15 310 0
309 15 -310 0
-310 -17 -311 0
-310 17 311 0
310 -17 311 0
310 17 -311 0
-21 -22 -312 0
-21 22 312 0
21 -22 312 0
21 22 -312 0
-312 -23 -313 0
-312 23 313 0
312 -23 313 0
312 23 -313 0
-313 -25 -314 0
-313 25 314 0
313 -25 314 0
313 25 -314 0
-314 -27 -315 0
-314 27 315 0
314 -27 315 0
314 27 -315 0
-315 -31 -316 0
-315 31 316 0
315 -31 316 0
315 31 -316 0
-316 -32 -317 0
-316 32 317 0
316 -32 317 0
316 32 -317 0
-317 -33 -318 0
-317 33 318 0
317 -33 318 0
317 33 -318 0
-318 -35 -319 0
-318 35 319 0
318 -35 319 0
318 35 -319 0
-319 -37 -320 0
-319 37 320 0
319 -37 320 0
319 37 -320 0
311 320 0
-11 -12 -321 0
-11 12 321 0
11 -12 321 0
11 12 -321 0
-321 -13 -322 0
-321 13 322 0
321 -13 322 0
321 13 -322 0
-322 -16 -323 0
-322 16 323 0
322 -16 323 0
322 16 -323 0
-323 -17 -324 0
-323 17 324 0
323 -17 324 0
323 17 -324 0
-1 -2 -325 0
-1 2 325 0
1 -2 325 0
1 2 -325 0
-325 -3 -326 0
-325 3 326 0
325 -3 326 0
325 3 -326 0
-326 -6 -327 0
-326 6 327 0
326 -6 327 0
326 6 -327 0
-327 -7 -328 0
-327 7 328 0
327 -7 328 0
327 7 -328 0
-328 -31 -329 0
-328 31 329 0
328 -31 329 0
328 31 -329 0
-329 -32 -330 0
-329 32 330 0
329 -32 330 0
329 32 -330 0
-330 -33 -331 0
-330 33 331 0
330 -33 331 0
330 33 -331 0
-331 -36 -332 0
-331 36 332 0
331 -36 332 0
331 36 -332 0
-332 -37 -333 0
-332 37 333 0
332 -37 333 0
332 37 -333 0
324 333 0
-2 -5 -334 0
-2 5 334 0
2 -5 334 0
2 5 -334 0
-334 -6 -335 0
-334 6 335 0
334 -6 335 0
334 6 -335 0
-335 -7 -336 0
-335 7 336 0
335 -7 336 0
335 7 -336 0
-336 -12 -337 0
-336 12 337 0
336 -12 337 0
336 12 -337 0
-337 -15 -338 0
-337 15 338 0
337 -15 338 0
337 15 -338 0
-338 -16 -339 0
-338 16 339 0
338 -16 339 0
338 16 -339 0
-339 -17 -340 0
-339 17 340 0
339 -17 340 0
339 17 -340 0
-2 -5 -341 0
-2 5 341 0
2 -5 341 0
2 5 -341 0
-341 -6 -342 0
-341 6 342 0
341 -6 342 0
341 6 -342 0
-342 -7 -343 0
-342 7 343 0
342 -7 343 0
342 7 -343 0
-343 -22 -344 0
-343 22 344 0
343 -22 344 0
343 22 -344 0
-344 -25 -345 0
-344 25 345 0
344 -25 345 0
344 25 -345 0
-345 -26 -346 0
-345 26 346 0
345 -26 346 0
345 26 -346 0
-346 -27 -347 0
-346 27 347 0
346 -27 347 0
346 27 -347 0
340 347 0
-11 -14 -348 0
-11 14 348 0
11 -14 348 0
11 14 -348 0
-348 -15 -349 0
-348 15 349 0
348 -15 349 0
348 15 -349 0
-349 -16 -350 0
-349 16 350 0
349 -16 350 0
349 16 -350 0
-350 -18 -351 0
-350 18 351 0
350 -18 351 0
350 18 -351 0
-1 -4 -352 0
-1 4 352 0
1 -4 352 0
1 4 -352 0
-352 -5 -353 0
-352 5 353 0
352 -5 353 0
352 5 -353 0
-353 -6 -354 0
-353 6 354 0
353 -6 354 0
353 6 -354 0
-354 -8 -355 0
-354 8 355 0
354 -8 355 0
354 8 -355 0
-355 -21 -356 0
-355 21 356 0
355 -21 356 0
355 21 -356 0
-356 -24 -357 0
-356 24 357 0
356 -24 357 0
356 24 -357 0
-357 -25 -358 0
-357 25 358 0
357 -25 358 0
357 25 -358 0
-358 -26 -359 0
-358 26 359 0
358 -26 359 0
358 26 -359 0
-359 -28 -360 0
-359 28 360 0
359 -28 360 0
359 28 -360 0
-360 -31 -361 0
-360 31 361 0
360 -31 361 0
360 31 -361 0
-361 -34 -362 0
-361 34 362 0
361 -34 362 0
361 34 -362 0
-362 -35 -363 0
-362 35 363 0
362 -35 363 0
362 35 -363 0
-363 -36 -364 0
-363 36 364 0
363 -36 364 0
363 36 -364 0
-364 -38 -365 0
-364 38 365 0
364 -38 365 0
364 38 -365 0
351 365 0
-2 -4 -366 0
-2 4 366 0
2 -4 366 0
2 4 -366 0
-366 -5 -367 0
-366 5 367 0
366 -5 367 0
366 5 -367 0
-367 -6 -368 0
-367 6 368 0
367 -6 368 0
367 6 -368 0
-368 -8 -369 0
-368 8 369 0
368 -8 369 0
368 8 -369 0
-369 -12 -370 0
-369 12 370 0
369 -12 370 0
369 12 -370 0
-370 -14 -371 0
-370 14 371 0
370 -14 371 0
370 14 -371 0
-371 -15 -372 0
-371 15 372 0
371 -15 372 0
371 15 -372 0
-372 -16 -373 0
-372 16 373 0
372 -16 373 0
372 16 -373 0
-373 -18 -374 0
-373 18 374 0
373 -18 374 0
373 18 -374 0
-22 -24 -375 0
-22 24 375 0
22 -24 375 0
22 24 -375 0
-375 -25 -376 0
-375 25 376 0
375 -25 376 0
375 25 -376 0
-376 -26 -377 0
-376 26 377 0
376 -26 377 0
376 26 -377 0
-377 -28 -378 0
-377 28 378 0
377 -28 378 0
377 28 -378 0
374 378 0
-11 -17 -379 0
-11 17 379 0
11 -17 379 0
11 17 -379 0
-379 -19 -380 0
-379 19 380 0
379 -19 380 0
379 19 -380 0
-21 -27 -381 0
-21 27 381 0
21 -27 381 0
21 27 -381 0
-381 -29 -382 0
-381 29 382 0
381 -29 382 0
381 29 -382 0
-382 -31 -383 0
-382 31 383 0
382 -31 383 0
382 31 -383 0
-383 -37 -384 0
-383 37 384 0
383 -37 384 0
383 37 -384 0
-384 -39 -385 0
-384 39 385 0
384 -39 385 0
384 39 -385 0
380 385 0
-11 -12 -386 0
-11 12 386 0
11 -12 386 0
11 12 -386 0
-386 -13 -387 0
-386 13 387 0
386 -13 387 0
386 13 -387 0
-387 -17 -388 0
-387 17 388 0
387 -17 388 0
387 17 -388 0
-388 -19 -389 0
-388 19 389 0
388 -19 389 0
388 19 -389 0
-31 -32 -390 0
-31 32 390 0
31 -32 390 0
31 32 -390 0
-390 -33 -391 0
-390 33 391 0
390 -33 391 0
390 33 -391 0
-391 -37 -392 0
-391 37 392 0
391 -37 392 0
391 37 -392 0
-392 -39 -393 0
-392 39 393 0
392 -39 393 0
392 39 -393 0
389 393 0
-1 -2 -394 0
-1 2 394 0
1 -2 394 0
1 2 -394 0
-394 -4 -395 0
-394 4 395 0
394 -4 395 0
394 4 -395 0
-395 -6 -396 0
-395 6 396 0
395 -6 396 0
395 6 -396 0
-396 -7 -397 0
-396 7 397 0
396 -7 397 0
396 7 -397 0
-397 -9 -398 0
-397 9 398 0
397 -9 398 0
397 9 -398 0
-398 -11 -399 0
-398 11 399 0
398 -11 399 0
398 11 -399 0
-399 -12 -400 0
-399 12 400 0
399 -12 400 0
399 12 -400 0
-400 -14 -401 0
-400 14 401 0
400 -14 401 0
400 14 -401 0
-401 -16 -402 0
-401 16 402 0
401 -16 402 0
401 16 -402 0
-402 -17 -403 0
-402 17 403 0
402 -17 403 0
402 17 -403 0
-403 -19 -404 0
-403 19 404 0
403 -19 404 0
403 19 -404 0
-1 -2 -405 0
-1 2 405 0
1 -2 405 0
1 2 -405 0
-405 -4 -406 0
-405 4 406 0
405 -4 406 0
405 4 -406 0
-406 -6 -407 0
-406 6 407 0
406 -6 407 0
406 6 -407 0
-407 -7 -408 0
-407 7 408 0
407 -7 408 0
407 7 -408 0
-408 -9 -409 0
-408 9 409 0
408 -9 409 0
408 9 -409 0
-409 -21 -410 0
-409 21 410 0
409 -21 410 0
409 21 -410 0
-410 -22 -411 0
-410 22 411 0
410 -22 411 0
410 22 -411 0
-411 -24 -412 0
-411 24 412 0
411 -24 412 0
411 24 -412 0
-412 -26 -413 0
-412 26 413 0
412 -26 413 0
412 26 -413 0
-413 -27 -414 0
-413 27 414 0
413 -27 414 0
413 27 -414 0
-414 -29 -415 0
-414 29 415 0
414 -29 415 0
414 29 -415 0
-415 -31 -416 0
-415 31 416 0
415 -31 416 0
415 31 -416 0
-416 -32 -417 0
-416 32 417 0
416 -32 417 0
416 32 -417 0
-417 -34 -418 0
-417 34 418 0
417 -34 418 0
417 34 -418 0
-418 -36 -419 0
-418 36 419 0
418 -36 419 0
418 36 -419 0
-419 -37 -420 0
-419 37 420 0
419 -37 420 0
419 37 -420 0
-420 -39 -421 0
-420 39 421 0
420 -39 421 0
420 39 -421 0
404 421 0
-12 -13 -422 0
-12 13 422 0
12 -13 422 0
12 13 -422 0
-422 -14 -423 0
-422 14 423 0
422 -14 423 0
422 14 -423 0
-423 -16 -424 0
-423 16 424 0
423 -16 424 0
423 16 -424 0
-424 -17 -425 0
-424 17 425 0
424 -17 425 0
424 17 -425 0
-425 -19 -426 0
-425 19 426 0
425 -19 426 0
425 19 -426 0
-22 -23 -427 0
-22 23 427 0
22 -23 427 0
22 23 -427 0
-427 -24 -428 0
-427 24 428 0
427 -24 428 0
427 24 -428 0
-428 -26 -429 0
-428 26 429 0
428 -26 429 0
428 26 -429 0
-429 -27 -430 0
-429 27 430 0
429 -27 430 0
429 27 -430 0
-430 -29 -431 0
-430 29 431 0
430 -29 431 0
430 29 -431 0
426 431 0
-1 -3 -432 0
-1 3 432 0
1 -3 432 0
1 3 -432 0
-432 -5 -433 0
-432 5 433 0
432 -5 433 0
432 5 -433 0
-433 -6 -434 0
-433 6 434 0
433 -6 434 0
433 6 -434 0
-434 -8 -435 0
-434 8 435 0
434 -8 435 0
434 8 -435 0
-435 -9 -436 0
-435 9 436 0
435 -9 436 0
435 9 -436 0
-436 -11 -437 0
-436 11 437 0
436 -11 437 0
436 11 -437 0
-437 -13 -438 0
-437 13 438 0
437 -13 438 0
437 13 -438 0
-438 -15 -439 0
-438 15 439 0
438 -15 439 0
438 15 -439 0
-439 -16 -440 0
-439 16 440 0
439 -16 440 0
439 16 -440 0
-440 -18 -441 0
-440 18 441 0
440 -18 441 0
440 18 -441 0
-441 -19 -442 0
-441 19 442 0
441 -19 442 0
441 19 -442 0
-31 -33 -443 0
-31 33 443 0
31 -33 443 0
31 33 -443 0
-443 -35 -444 0
-443 35 444 0
443 -35 444 0
443 35 -444 0
-444 -36 -445 0
-444 36 445 0
444 -36 445 0
444 36 -445 0
-445 -38 -446 0
-445 38 446 0
445 -38 446 0
445 38 -446 0
-446 -39 -447 0
-446 39 447 0
446 -39 447 0
446 39 -447 0
442 447 0
-12 -13 -448 0
-12 13 448 0
12 -13 448 0
12 13 -448 0
-448 -15 -449 0
-448 15 449 0
448 -15 449 0
448 15 -449 0
-449 -16 -450 0
-449 16 450 0
449 -16 450 0
449 16 -450 0
-450 -18 -451 0
-450 18 451 0
450 -18 451 0
450 18 -451 0
-451 -19 -452 0
-451 19 452 0
451 -19 452 0
451 19 -452 0
-2 -3 -453 0
-2 3 453 0
2 -3 453 0
2 3 -453 0
-453 -5 -454 0
-453 5 454 0
453 -5 454 0
453 5 -454 0
-454 -6 -455 0
-454 6 455 0
454 -6 455 0
454 6 -455 0
-455 -8 -456 0
-455 8 456 0
455 -8 456 0
455 8 -456 0
-456 -9 -457 0
-456 9 457 0
456 -9 457 0
456 9 -457 0
-457 -22 -458 0
-457 22 458 0
457 -22 458 0
457 22 -458 0
-458 -23 -459 0
-458 23 459 0
458 -23 459 0
458 23 -459 0
-459 -25 -460 0
-459 25 460 0
459 -25 460 0
459 25 -460 0
-460 -26 -461 0
-460 26 461 0
460 -26 461 0
460 26 -461 0
-461 -28 -462 0
-461 28 462 0
461 -28 462 0
461 28 -462 0
-462 -29 -463 0
-462 29 463 0
462 -29 463 0
462 29 -463 0
452 463 0
-2 -4 -464 0
-2 4 464 0
2 -4 464 0
2 4 -464 0
-464 -10 -465 0
-464 10 465 0
464 -10 465 0
464 10 -465 0
-465 -12 -466 0
-465 12 466 0
465 -12 466 0
465 12 -466 0
-466 -14 -467 0
-466 14 467 0
466 -14 467 0
466 14 -467 0
-467 -20 -468 0
-467 20 468 0
467 -20 468 0
467 20 -468 0
-32 -34 -469 0
-32 34 469 0
32 -34 469 0
32 34 -469 0
-469 -40 -470 0
-469 40 470 0
469 -40 470 0
469 40 -470 0
468 470 0
-11 -12 -471 0
-11 12 471 0
11 -12 471 0
11 12 -471 0
-471 -14 -472 0
-471 14 472 0
471 -14 472 0
471 14 -472 0
-472 -20 -473 0
-472 20 473 0
472 -20 473 0
472 20 -473 0
-1 -2 -474 0
-1 2 474 0
1 -2 474 0
1 2 -474 0
-474 -4 -475 0
-474 4 475 0
474 -4 475 0
474 4 -475 0
-475 -10 -476 0
-475 10 476 0
475 -10 476 0
475 10 -476 0
-476 -21 -477 0
-476 21 477 0
476 -21 477 0
476 21 -477 0
-477 -22 -478 0
-477 22 478 0
477 -22 478 0
477 22 -478 0
-478 -24 -479 0
-478 24 479 0
478 -24 479 0
478 24 -479 0
-479 -30 -480 0
-479 30 480 0
479 -30 480 0
479 30 -480 0
473 480 0
-11 -12 -481 0
-11 12 481 0
11 -12 481 0
11 12 -481 0
-481 -17 -482 0
-481 17 482 0
481 -17 482 0
481 17 -482 0
-482 -20 -483 0
-482 20 483 0
482 -20 483 0
482 20 -483 0
-21 -22 -484 0
-21 22 484 0
21 -22 484 0
21 22 -484 0
-484 -27 -485 0
-484 27 485 0
484 -27 485 0
484 27 -485 0
-485 -30 -486 0
-485 30 486 0
485 -30 486 0
485 30 -486 0
-486 -31 -487 0
-486 31 487 0
486 -31 487 0
486 31 -487 0
-487 -32 -488 0
-487 32 488 0
487 -32 488 0
487 32 -488 0
-488 -37 -489 0
-488 37 489 0
488 -37 489 0
488 37 -489 0
-489 -40 -490 0
-489 40 490 0
489 -40 490 0
489 40 -490 0
483 490 0
-11 -13 -491 0
-11 13 491 0
11 -13 491 0
11 13 -491 0
-491 -17 -492 0
-491 17 492 0
491 -17 492 0
491 17 -492 0
-492 -20 -493 0
-492 20 493 0
492 -20 493 0
492 20 -493 0
-21 -23 -494 0
-21 23 494 0
21 -23 494 0
21 23 -494 0
-494 -27 -495 0
-494 27 495 0
494 -27 495 0
494 27 -495 0
-495 -30 -496 0
-495 30 496 0
495 -30 496 0
495 30 -496 0
493 496 0
-12 -14 -497 0
-12 14 497 0
12 -14 497 0
12 14 -497 0
-497 -16 -498 0
-497 16 498 0
497 -16 498 0
497 16 -498 0
-498 -17 -499 0
-498 17 499 0
498 -17 499 0
498 17 -499 0
-499 -20 -500 0
-499 20 500 0
499 -20 500 0
499 20 -500 0
-32 -34 -501 0
-32 34 501 0
32 -34 501 0
32 34 -501 0
-501 -36 -502 0
-501 36 502 0
501 -36 502 0
501 36 -502 0
-502 -37 -503 0
-502 37 503 0
502 -37 503 0
502 37 -503 0
-503 -40 -504 0
-503 40 504 0
503 -40 504 0
503 40 -504 0
500 504 0
-2 -3 -505 0
-2 3 505 0
2 -3 505 0
2 3 -505 0
-505 -4 -506 0
-505 4 506 0
505 -4 506 0
505 4 -506 0
-506 -6 -507 0
-506 6 507 0
506 -6 507 0
506 6 -507 0
-507 -7 -508 0
-507 7 508 0
507 -7 508 0
507 7 -508 0
-508 -10 -509 0
-508 10 509 0
508 -10 509 0
508 10 -509 0
-509 -12 -510 0
-509 12 510 0
509 -12 510 0
509 12 -510 0
-510 -13 -511 0
-510 13 511 0
510 -13 511 0
510 13 -511 0
-511 -14 -512 0
-511 14 512 0
511 -14 512 0
511 14 -512 0
-512 -16 -513 0
-512 16 513 0
512 -16 513 0
512 16 -513 0
-513 -17 -514 0
-513 17 514 0
513 -17 514 0
513 17 -514 0
-514 -20 -515 0
-514 20 515 0
514 -20 515 0
514 20 -515 0
-2 -3 -516 0
-2 3 516 0
2 -3 516 0
2 3 -516 0
-516 -4 -517 0
-516 4 517 0
516 -4 517 0
516 4 -517 0
-517 -6 -518 0
-517 6 518 0
517 -6 518 0
517 6 -518 0
-518 -7 -519 0
-518 7 519 0
518 -7 519 0
518 7 -519 0
-519 -10 -520 0
-519 10 520 0
519 -10 520 0
519 10 -520 0
-520 -22 -521 0
-520 22 521 0
520 -22 521 0
520 22 -521 0
-521 -23 -522 0
-521 23 522 0
521 -23 522 0
521 23 -522 0
-522 -24 -523 0
-522 24 523 0
522 -24 523 0
522 24 -523 0
-523 -26 -524 0
-523 26 524 0
523 -26 524 0
523 26 -524 0
-524 -27 -525 0
-524 27 525 0
524 -27 525 0
524 27 -525 0
-525 -30 -526 0
-525 30 526 0
525 -30 526 0
525 30 -526 0
-526 -32 -527 0
-526 32 527 0
526 -32 527 0
526 32 -527 0
-527 -33 -528 0
-527 33 528 0
527 -33 528 0
527 33 -528 0
-528 -34 -529 0
-528 34 529 0
528 -34 529 0
528 34 -529 0
-529 -36 -530 0
-529 36 530 0
529 -36 530 0
529 36 -530 0
-530 -37 -531 0
-530 37 531 0
530 -37 531 0
530 37 -531 0
-531 -40 -532 0
-531 40 532 0
531 -40 532 0
531 40 -532 0
515 532 0
-1 -2 -533 0
-1 2 533 0
1 -2 533 0
1 2 -533 0
-533 -8 -534 0
-533 8 534 0
533 -8 534 0
533 8 -534 0
-534 -10 -535 0
-534 10 535 0
534 -10 535 0
534 10 -535 0
-535 -11 -536 0
-535 11 536 0
535 -11 536 0
535 11 -536 0
-536 -12 -537 0
-536 12 537 0
536 -12 537 0
536 12 -537 0
-537 -18 -538 0
-537 18 538 0
537 -18 538 0
537 18 -538 0
-538 -20 -539 0
-538 20 539 0
538 -20 539 0
538 20 -539 0
-1 -2 -540 0
-1 2 540 0
1 -2 540 0
1 2 -540 0
-540 -8 -541 0
-540 8 541 0
540 -8 541 0
540 8 -541 0
-541 -10 -542 0
-541 10 542 0
541 -10 542 0
541 10 -542 0
-542 -31 -543 0
-542 31 543 0
542 -31 543 0
542 31 -543 0
-543 -32 -544 0
-543 32 544 0
543 -32 544 0
543 32 -544 0
-544 -38 -545 0
-544 38 545 0
544 -38 545 0
544 38 -545 0
-545 -40 -546 0
-545 40 546 0
545 -40 546 0
545 40 -546 0
539 546 0
-1 -3 -547 0
-1 3 547 0
1 -3 547 0
1 3 -547 0
-547 -5 -548 0
-547 5 548 0
547 -5 548 0
547 5 -548 0
-548 -8 -549 0
-548 8 549 0
548 -8 549 0
548 8 -549 0
-549 -10 -550 0
-549 10 550 0
549 -10 550 0
549 10 -550 0
-550 -11 -551 0
-550 11 551 0
550 -11 551 0
550 11 -551 0
-551 -13 -552 0
-551 13 552 0
551 -13 552 0
551 13 -552 0
-552 -15 -553 0
-552 15 553 0
552 -15 553 0
552 15 -553 0
-553 -18 -554 0
-553 18 554 0
553 -18 554 0
553 18 -554 0
-554 -20 -555 0
-554 20 555 0
554 -20 555 0
554 20 -555 0
-1 -3 -556 0
-1 3 556 0
1 -3 556 0
1 3 -556 0
-556 -5 -557 0
-556 5 557 0
556 -5 557 0
556 5 -557 0
-557 -8 -558 0
-557 8 558 0
557 -8 558 0
557 8 -558 0
-558 -10 -559 0
-558 10 559 0
558 -10 559 0
558 10 -559 0
-559 -21 -560 0
-559 21 560 0
559 -21 560 0
559 21 -560 0
-560 -23 -561 0
-560 23 561 0
560 -23 561 0
560 23 -561 0
-561 -25 -562 0
-561 25 562 0
561 -25 562 0
561 25 -562 0
-562 -28 -563 0
-562 28 563 0
562 -28 563 0
562 28 -563 0
-563 -30 -564 0
-563 30 564 0
563 -30 564 0
563 30 -564 0
555 564 0
-2 -3 -565 0
-2 3 565 0
2 -3 565 0
2 3 -565 0
-565 -6 -566 0
-565 6 566 0
565 -6 566 0
565 6 -566 0
-566 -8 -567 0
-566 8 567 0
566 -8 567 0
566 8 -567 0
-567 -10 -568 0
-567 10 568 0
567 -10 568 0
567 10 -568 0
-568 -12 -569 0
-568 12 569 0
568 -12 569 0
568 12 -569 0
-569 -13 -570 0
-569 13 570 0
569 -13 570 0
569 13 -570 0
-570 -16 -571 0
-570 16 571 0
570 -16 571 0
570 16 -571 0
-571 -18 -572 0
-571 18 572 0
571 -18 572 0
571 18 -572 0
-572 -20 -573 0
-572 20 573 0
572 -20 573 0
572 20 -573 0
-22 -23 -574 0
-22 23 574 0
22 -23 574 0
22 23 -574 0
-574 -26 -575 0
-574 26 575 0
574 -26 575 0
574 26 -575 0
-575 -28 -576 0
-575 28 576 0
575 -28 576 0
575 28 -576 0
-576 -30 -577 0
-576 30 577 0
576 -30 577 0
576 30 -577 0
-577 -32 -578 0
-577 32 578 0
577 -32 578 0
577 32 -578 0
-578 -33 -579 0
-578 33 579 0
578 -33 579 0
578 33 -579 0
-579 -36 -580 0
-579 36 580 0
579 -36 580 0
579 36 -580 0
-580 -38 -581 0
-580 38 581 0
580 -38 581 0
580 38 -581 0
-581 -40 -582 0
-581 40 582 0
581 -40 582 0
581 40 -582 0
573 582 0
-12 -15 -583 0
-12 15 583 0
12 -15 583 0
12 15 -583 0
-583 -16 -584 0
-583 16 584 0
583 -16 584 0
583 16 -584 0
-584 -18 -585 0
-584 18 585 0
584 -18 585 0
584 18 -585 0
-585 -20 -586 0
-585 20 586 0
585 -20 586 0
585 20 -586 0
-2 -5 -587 0
-2 5 587 0
2 -5 587 0
2 5 -587 0
-587 -6 -588 0
-587 6 588 0
587 -6 588 0
587 6 -588 0
-588 -8 -589 0
-588 8 589 0
588 -8 589 0
588 8 -589 0
-589 -10 -590 0
-589 10 590 0
589 -10 590 0
589 10 -590 0
-590 -32 -591 0
-590 32 591 0
590 -32 591 0
590 32 -591 0
-591 -35 -592 0
-591 35 592 0
591 -35 592 0
591 35 -592 0
-592 -36 -593 0
-592 36 593 0
592 -36 593 0
592 36 -593 0
-593 -38 -594 0
-593 38 594 0
593 -38 594 0
593 38 -594 0
-594 -40 -595 0
-594 40 595 0
594 -40 595 0
594 40 -595 0
586 595 0
-2 -7 -596 0
-2 7 596 0
2 -7 596 0
2 7 -596 0
-596 -8 -597 0
-596 8 597 0
596 -8 597 0
596 8 -597 0
-597 -10 -598 0
-597 10 598 0
597 -10 598 0
597 10 -598 0
-598 -12 -599 0
-598 12 599 0
598 -12 599 0
598 12 -599 0
-599 -17 -600 0
-599 17 600 0
599 -17 600 0
599 17 -600 0
-600 -18 -601 0
-600 18 601 0
600 -18 601 0
600 18 -601 0
-601 -20 -602 0
-601 20 602 0
601 -20 602 0
601 20 -602 0
-2 -7 -603 0
-2 7 603 0
2 -7 603 0
2 7 -603 0
-603 -8 -604 0
-603 8 604 0
603 -8 604 0
603 8 -604 0
-604 -10 -605 0
-604 10 605 0
604 -10 605 0
604 10 -605 0
-605 -32 -606 0
-605 32 606 0
605 -32 606 0
605 32 -606 0
-606 -37 -607 0
-606 37 607 0
606 -37 607 0
606 37 -607 0
-607 -38 -608 0
-607 38 608 0
607 -38 608 0
607 38 -608 0
-608 -40 -609 0
-608 40 609 0
608 -40 609 0
608 40 -609 0
602 609 0
-11 -13 -610 0
-11 13 610 0
11 -13 610 0
11 13 -610 0
-610 -15 -611 0
-610 15 611 0
610 -15 611 0
610 15 -611 0
-611 -17 -612 0
-611 17 612 0
611 -17 612 0
611 17 -612 0
-612 -18 -613 0
-612 18 613 0
612 -18 613 0
612 18 -613 0
-613 -20 -614 0
-613 20 614 0
613 -20 614 0
613 20 -614 0
-1 -3 -615 0
-1 3 615 0
1 -3 615 0
1 3 -615 0
-615 -5 -616 0
-615 5 616 0
615 -5 616 0
615 5 -616 0
-616 -7 -617 0
-616 7 617 0
616 -7 617 0
616 7 -617 0
-617 -8 -618 0
-617 8 618 0
617 -8 618 0
617 8 -618 0
-618 -10 -619 0
-618 10 619 0
618 -10 619 0
618 10 -619 0
-619 -31 -620 0
-619 31 620 0
619 -31 620 0
619 31 -620 0
-620 -33 -621 0
-620 33 621 0
620 -33 621 0
620 33 -621 0
-621 -35 -622 0
-621 35 622 0
621 -35 622 0
621 35 -622 0
-622 -37 -623 0
-622 37 623 0
622 -37 623 0
622 37 -623 0
-623 -38 -624 0
-623 38 624 0
623 -38 624 0
623 38 -624 0
-624 -40 -625 0
-624 40 625 0
624 -40 625 0
624 40 -625 0
614 625 0
-1 -2 -626 0
-1 2 626 0
1 -2 626 0
1 2 -626 0
-626 -3 -627 0
-626 3 627 0
626 -3 627 0
626 3 -627 0
-627 -6 -628 0
-627 6 628 0
627 -6 628 0
627 6 -628 0
-628 -7 -629 0
-628 7 629 0
628 -7 629 0
628 7 -629 0
-629 -8 -630 0
-629 8 630 0
629 -8 630 0
629 8 -630 0
-630 -10 -631 0
-630 10 631 0
630 -10 631 0
630 10 -631 0
-631 -11 -632 0
-631 11 632 0
631 -11 632 0
631 11 -632 0
-632 -12 -633 0
-632 12 633 0
632 -12 633 0
632 12 -633 0
-633 -13 -634 0
-633 13 634 0
633 -13 634 0
633 13 -634 0
-634 -16 -635 0
-634 16 635 0
634 -16 635 0
634 16 -635 0
-635 -17 -636 0
-635 17 636 0
635 -17 636 0
635 17 -636 0
-636 -18 -637 0
-636 18 637 0
636 -18 637 0
636 18 -637 0
-637 -20 -638 0
-637 20 638 0
637 -20 638 0
637 20 -638 0
-1 -2 -639 0
-1 2 639 0
1 -2 639 0
1 2 -639 0
-639 -3 -640 0
-639 3 640 0
639 -3 640 0
639 3 -640 0
-640 -6 -641 0
-640 6 641 0
640 -6 641 0
640 6 -641 0
-641 -7 -642 0
-641 7 642 0
641 -7 642 0
641 7 -642 0
-642 -8 -643 0
-642 8 643 0
642 -8 643 0
642 8 -643 0
-643 -10 -644 0
-643 10 644 0
643 -10 644 0
643 10 -644 0
-644 -21 -645 0
-644 21 645 0
644 -21 645 0
644 21 -645 0
-645 -22 -646 0
-645 22 646 0
645 -22 646 0
645 22 -646 0
-646 -23 -647 0
-646 23 647 0
646 -23 647 0
646 23 -647 0
-647 -26 -648 0
-647 26 648 0
647 -26 648 0
647 26 -648 0
-648 -27 -649 0
-648 27 649 0
648 -27 649 0
648 27 -649 0
-649 -28 -650 0
-649 28 650 0
649 -28 650 0
649 28 -650 0
-650 -30 -651 0
-650 30 651 0
650 -30 651 0
650 30 -651 0
638 651 0
-1 -5 -652 0
-1 5 652 0
1 -5 652 0
1 5 -652 0
-652 -6 -653 0
-652 6 653 0
652 -6 653 0
652 6 -653 0
-653 -7 -654 0
-653 7 654 0
653 -7 654 0
653 7 -654 0
-654 -8 -655 0
-654 8 655 0
654 -8 655 0
654 8 -655 0
-655 -10 -656 0
-655 10 656 0
655 -10 656 0
655 10 -656 0
-656 -11 -657 0
-656 11 657 0
656 -11 657 0
656 11 -657 0
-657 -15 -658 0
-657 15 658 0
657 -15 658 0
657 15 -658 0
-658 -16 -659 0
-658 16 659 0
658 -16 659 0
658 16 -659 0
-659 -17 -660 0
-659 17 660 0
659 -17 660 0
659 17 -660 0
-660 -18 -661 0
-660 18 661 0
660 -18 661 0
660 18 -661 0
-661 -20 -662 0
-661 20 662 0
661 -20 662 0
661 20 -662 0
-21 -25 -663 0
-21 25 663 0
21 -25 663 0
21 25 -663 0
-663 -26 -664 0
-663 26 664 0
663 -26 664 0
663 26 -664 0
-664 -27 -665 0
-664 27 665 0
664 -27 665 0
664 27 -665 0
-665 -28 -666 0
-665 28 666 0
665 -28 666 0
665 28 -666 0
-666 -30 -667 0
-666 30 667 0
666 -30 667 0
666 30 -667 0
-667 -31 -668 0
-667 31 668 0
667 -31 668 0
667 31 -668 0
-668 -35 -669 0
-668 35 669 0
668 -35 669 0
668 35 -669 0
-669 -36 -670 0
-669 36 670 0
669 -36 670 0
669 36 -670 0
-670 -37 -671 0
-670 37 671 0
670 -37 671 0
670 37 -671 0
-671 -38 -672 0
-671 38 672 0
671 -38 672 0
671 38 -672 0
-672 -40 -673 0
-672 40 673 0
672 -40 673 0
672 40 -673 0
662 673 0
-12 -19 -674 0
-12 19 674 0
12 -19 674 0
12 19 -674 0
-674 -20 -675 0
-674 20 675 0
674 -20 675 0
674 20 -675 0
-22 -29 -676 0
-22 29 676 0
22 -29 676 0
22 29 -676 0
-676 -30 -677 0
-676 30 677 0
676 -30 677 0
676 30 -677 0
-677 -32 -678 0
-677 32 678 0
677 -32 678 0
677 32 -678 0
-678 -39 -679 0
-678 39 679 0
678 -39 679 0
678 39 -679 0
-679 -40 -680 0
-679 40 680 0
679 -40 680 0
679 40 -680 0
675 680 0
-1 -3 -681 0
-1 3 681 0
1 -3 681 0
1 3 -681 0
-681 -9 -682 0
-681 9 682 0
681 -9 682 0
681 9 -682 0
-682 -10 -683 0
-682 10 683 0
682 -10 683 0
682 10 -683 0
-683 -11 -684 0
-683 11 684 0
683 -11 684 0
683 11 -684 0
-684 -13 -685 0
-684 13 685 0
684 -13 685 0
684 13 -685 0
-685 -19 -686 0
-685 19 686 0
685 -19 686 0
685 19 -686 0
-686 -20 -687 0
-686 20 687 0
686 -20 687 0
686 20 -687 0
-1 -3 -688 0
-1 3 688 0
1 -3 688 0
1 3 -688 0
-688 -9 -689 0
-688 9 689 0
688 -9 689 0
688 9 -689 0
-689 -10 -690 0
-689 10 690 0
689 -10 690 0
689 10 -690 0
-690 -21 -691 0
-690 21 691 0
690 -21 691 0
690 21 -691 0
-691 -23 -692 0
-691 23 692 0
691 -23 692 0
691 23 -692 0
-692 -29 -693 0
-692 29 693 0
692 -29 693 0
692 29 -693 0
-693 -30 -694 0
-693 30 694 0
693 -30 694 0
693 30 -694 0
-694 -31 -695 0
-694 31 695 0
694 -31 695 0
694 31 -695 0
-695 -33 -696 0
-695 33 696 0
695 -33 696 0
695 33 -696 0
-696 -39 -697 0
-696 39 697 0
696 -39 697 0
696 39 -697 0
-697 -40 -698 0
-697 40 698 0
697 -40 698 0
697 40 -698 0
687 698 0
-11 -12 -699 0
-11 12 699 0
11 -12 699 0
11 12 -699 0
-699 -14 -700 0
-699 14 700 0
699 -14 700 0
699 14 -700 0
-700 -16 -701 0
-700 16 701 0
700 -16 701 0
700 16 -701 0
-701 -19 -702 0
-701 19 702 0
701 -19 702 0
701 19 -702 0
-702 -20 -703 0
-702 20 703 0
702 -20 703 0
702 20 -703 0
-21 -22 -704 0
-21 22 704 0
21 -22 704 0
21 22 -704 0
-704 -24 -705 0
-704 24 705 0
704 -24 705 0
704 24 -705 0
-705 -26 -706 0
-705 26 706 0
705 -26 706 0
705 26 -706 0
-706 -29 -707 0
-706 29 707 0
706 -29 707 0
706 29 -707 0
-707 -30 -708 0
-707 30 708 0
707 -30 708 0
707 30 -708 0
703 708 0
-11 -13 -709 0
-11 13 709 0
11 -13 709 0
11 13 -709 0
-709 -14 -710 0
-709 14 710 0
709 -14 710 0
709 14 -710 0
-710 -16 -711 0
-710 16 711 0
710 -16 711 0
710 16 -711 0
-711 -19 -712 0
-711 19 712 0
711 -19 712 0
711 19 -712 0
-712 -20 -713 0
-712 20 713 0
712 -20 713 0
712 20 -713 0
-31 -33 -714 0
-31 33 714 0
31 -33 714 0
31 33 -714 0
-714 -34 -715 0
-714 34 715 0
714 -34 715 0
714 34 -715 0
-715 -36 -716 0
-715 36 716 0
715 -36 716 0
715 36 -716 0
-716 -39 -717 0
-716 39 717 0
716 -39 717 0
716 39 -717 0
-717 -40 -718 0
-717 40 718 0
717 -40 718 0
717 40 -718 0
713 718 0
-1 -6 -719 0
-1 6 719 0
1 -6 719 0
1 6 -719 0
-719 -7 -720 0
-719 7 720 0
719 -7 720 0
719 7 -720 0
-720 -9 -721 0
-720 9 721 0
720 -9 721 0
720 9 -721 0
-721 -10 -722 0
-721 10 722 0
721 -10 722 0
721 10 -722 0
-722 -11 -723 0
-722 11 723 0
722 -11 723 0
722 11 -723 0
-723 -16 -724 0
-723 16 724 0
723 -16 724 0
723 16 -724 0
-724 -17 -725 0
-724 17 725 0
724 -17 725 0
724 17 -725 0
-725 -19 -726 0
-725 19 726 0
725 -19 726 0
725 19 -726 0
-726 -20 -727 0
-726 20 727 0
726 -20 727 0
726 20 -727 0
-21 -26 -728 0
-21 26 728 0
21 -26 728 0
21 26 -728 0
-728 -27 -729 0
-728 27 729 0
728 -27 729 0
728 27 -729 0
-729 -29 -730 0
-729 29 730 0
729 -29 730 0
729 29 -730 0
-730 -30 -731 0
-730 30 731 0
730 -30 731 0
730 30 -731 0
727 731 0
-11 -12 -732 0
-11 12 732 0
11 -12 732 0
11 12 -732 0
-732 -16 -733 0
-732 16 733 0
732 -16 733 0
732 16 -733 0
-733 -17 -734 0
-733 17 734 0
733 -17 734 0
733 17 -734 0
-734 -19 -735 0
-734 19 735 0
734 -19 735 0
734 19 -735 0
-735 -20 -736 0
-735 20 736 0
735 -20 736 0
735 20 -736 0
-1 -2 -737 0
-1 2 737 0
1 -2 737 0
1 2 -737 0
-737 -6 -738 0
-737 6 738 0
737 -6 738 0
737 6 -738 0
-738 -7 -739 0
-738 7 739 0
738 -7 739 0
738 7 -739 0
-739 -9 -740 0
-739 9 740 0
739 -9 740 0
739 9 -740 0
-740 -10 -741 0
-740 10 741 0
740 -10 741 0
740 10 -741 0
-741 -21 -742 0
-741 21 742 0
741 -21 742 0
741 21 -742 0
-742 -22 -743 0
-742 22 743 0
742 -22 743 0
742 22 -743 0
-743 -26 -744 0
-743 26 744 0
743 -26 744 0
743 26 -744 0
-744 -27 -745 0
-744 27 745 0
744 -27 745 0
744 27 -745 0
-745 -29 -746 0
-745 29 746 0
745 -29 746 0
745 29 -746 0
-746 -30 -747 0
-746 30 747 0
746 -30 747 0
746 30 -747 0
-747 -31 -748 0
-747 31 748 0
747 -31 748 0
747 31 -748 0
-748 -32 -749 0
-748 32 749 0
748 -32 749 0
748 32 -749 0
-749 -36 -750 0
-749 36 750 0
749 -36 750 0
749 36 -750 0
-750 -37 -751 0
-750 37 751 0
750 -37 751 0
750 37 -751 0
-751 -39 -752 0
-751 39 752 0
751 -39 752 0
751 39 -752 0
-752 -40 -753 0
-752 40 753 0
752 -40 753 0
752 40 -753 0
736 753 0
-11 -13 -754 0
-11 13 754 0
11 -13 754 0
11 13 -754 0
-754 -14 -755 0
-754 14 755 0
754 -14 755 0
754 14 -755 0
-755 -15 -756 0
-755 15 756 0
755 -15 756 0
755 15 -756 0
-756 -16 -757 0
-756 16 757 0
756 -16 757 0
756 16 -757 0
-757 -18 -758 0
-757 18 758 0
757 -18 758 0
757 18 -758 0
-758 -19 -759 0
-758 19 759 0
758 -19 759 0
758 19 -759 0
-759 -20 -760 0
-759 20 760 0
759 -20 760 0
759 20 -760 0
-1 -3 -761 0
-1 3 761 0
1 -3 761 0
1 3 -761 0
-761 -4 -762 0
-761 4 762 0
761 -4 762 0
761 4 -762 0
-762 -5 -763 0
-762 5 763 0
762 -5 763 0
762 5 -763 0
-763 -6 -764 0
-763 6 764 0
763 -6 764 0
763 6 -764 0
-764 -8 -765 0
-764 8 765 0
764 -8 765 0
764 8 -765 0
-765 -9 -766 0
-765 9 766 0
765 -9 766 0
765 9 -766 0
-766 -10 -767 0
-766 10 767 0
766 -10 767 0
766 10 -767 0
-767 -21 -768 0
-767 21 768 0
767 -21 768 0
767 21 -768 0
-768 -23 -769 0
-768 23 769 0
768 -23 769 0
768 23 -769 0
-769 -24 -770 0
-769 24 770 0
769 -24 770 0
769 24 -770 0
-770 -25 -771 0
-770 25 771 0
770 -25 771 0
770 25 -771 0
-771 -26 -772 0
-771 26 772 0
771 -26 772 0
771 26 -772 0
-772 -28 -773 0
-772 28 773 0
772 -28 773 0
772 28 -773 0
-773 -29 -774 0
-773 29 774 0
773 -29 774 0
773 29 -774 0
-774 -30 -775 0
-774 30 775 0
774 -30 775 0
774 30 -775 0
760 775 0
-1 -2 -776 0
-1 2 776 0
1 -2 776 0
1 2 -776 0
-776 -3 -777 0
-776 3 777 0
776 -3 777 0
776 3 -777 0
-777 -4 -778 0
-777 4 778 0
777 -4 778 0
777 4 -778 0
-778 -5 -779 0
-778 5 779 0
778 -5 779 0
778 5 -779 0
-779 -6 -780 0
-779 6 780 0
779 -6 780 0
779 6 -780 0
-780 -8 -781 0
-780 8 781 0
780 -8 781 0
780 8 -781 0
-781 -9 -782 0
-781 9 782 0
781 -9 782 0
781 9 -782 0
-782 -10 -783 0
-782 10 783 0
782 -10 783 0
782 10 -783 0
-783 -11 -784 0
-783 11 784 0
783 -11 784 0
783 11 -784 0
-784 -12 -785 0
-784 12 785 0
784 -12 785 0
784 12 -785 0
-785 -13 -786 0
-785 13 786 0
785 -13 786 0
785 13 -786 0
-786 -14 -787 0
-786 14 787 0
786 -14 787 0
786 14 -787 0
-787 -15 -788 0
-787 15 788 0
787 -15 788 0
787 15 -788 0
-788 -16 -789 0
-788 16 789 0
788 -16 789 0
788 16 -789 0
-789 -18 -790 0
-789 18 790 0
789 -18 790 0
789 18 -790 0
-790 -19 -791 0
-790 19 791 0
790 -19 791 0
790 19 -791 0
-791 -20 -792 0
-791 20 792 0
791 -20 792 0
791 20 -792 0
-31 -32 -793 0
-31 32 793 0
31 -32 793 0
31 32 -793 0
-793 -33 -794 0
-793 33 794 0
793 -33 794 0
793 33 -794 0
-794 -34 -795 0
-794 34 795 0
794 -34 795 0
794 34 -795 0
-795 -35 -796 0
-795 35 796 0
795 -35 796 0
795 35 -796 0
-796 -36 -797 0
-796 36 797 0
796 -36 797 0
796 36 -797 0
-797 -38 -798 0
-797 38 798 0
797 -38 798 0
797 38 -798 0
-798 -39 -799 0
-798 39 799 0
798 -39 799 0
798 39 -799 0
-799 -40 -800 0
-799 40 800 0
799 -40 800 0
799 40 -800 0
792 800 0
-12 -14 -801 0
-12 14 801 0
12 -14 801 0
12 14 -801 0
-801 -15 -802 0
-801 15 802 0
801 -15 802 0
801 15 -802 0
-802 -17 -803 0
-802 17 803 0
802 -17 803 0
802 17 -803 0
-803 -18 -804 0
-803 18 804 0
803 -18 804 0
803 18 -804 0
-804 -19 -805 0
-804 19 805 0
804 -19 805 0
804 19 -805 0
-805 -20 -806 0
-805 20 806 0
805 -20 806 0
805 20 -806 0
-2 -4 -807 0
-2 4 807 0
2 -4 807 0
2 4 -807 0
-807 -5 -808 0
-807 5 808 0
807 -5 808 0
807 5 -808 0
-808 -7 -809 0
-808 7 809 0
808 -7 809 0
808 7 -809 0
-809 -8 -810 0
-809 8 810 0
809 -8 810 0
809 8 -810 0
-810 -9 -811 0
-810 9 811 0
810 -9 811 0
810 9 -811 0
-811 -10 -812 0
-811 10 812 0
811 -10 812 0
811 10 -812 0
-812 -22 -813 0
-812 22 813 0
812 -22 813 0
812 22 -813 0
-813 -24 -814 0
-813 24 814 0
813 -24 814 0
813 24 -814 0
-814 -25 -815 0
-814 25 815 0
814 -25 815 0
814 25 -815 0
-815 -27 -816 0
-815 27 816 0
815 -27 816 0
815 27 -816 0
-816 -28 -817 0
-816 28 817 0
816 -28 817 0
816 28 -817 0
-817 -29 -818 0
-817 29 818 0
817 -29 818 0
817 29 -818 0
-818 -30 -819 0
-818 30 819 0
818 -30 819 0
818 30 -819 0
-819 -32 -820 0
-819 32 820 0
819 -32 820 0
819 32 -820 0
-820 -34 -821 0
-820 34 821 0
820 -34 821 0
820 34 -821 0
-821 -35 -822 0
-821 35 822 0
821 -35 822 0
821 35 -822 0
-822 -37 -823 0
-822 37 823 0
822 -37 823 0
822 37 -823 0
-823 -38 -824 0
-823 38 824 0
823 -38 824 0
823 38 -824 0
-824 -39 -825 0
-824 39 825 0
824 -39 825 0
824 39 -825 0
-825 -40 -826 0
-825 40 826 0
825 -40 826 0
825 40 -826 0
806 826 0
-1 -2 -827 0
-1 2 827 0
1 -2 827 0
1 2 -827 0
-827 -4 -828 0
-827 4 828 0
827 -4 828 0
827 4 -828 0
-828 -5 -829 0
-828 5 829 0
828 -5 829 0
828 5 -829 0
-829 -7 -830 0
-829 7 830 0
829 -7 830 0
829 7 -830 0
-830 -8 -831 0
-830 8 831 0
830 -8 831 0
830 8 -831 0
-831 -9 -832 0
-831 9 832 0
831 -9 832 0
831 9 -832 0
-832 -10 -833 0
-832 10 833 0
832 -10 833 0
832 10 -833 0
-833 -11 -834 0
-833 11 834 0
833 -11 834 0
833 11 -834 0
-834 -12 -835 0
-834 12 835 0
834 -12 835 0
834 12 -835 0
-835 -14 -836 0
-835 14 836 0
835 -14 836 0
835 14 -836 0
-836 -15 -837 0
-836 15 837 0
836 -15 837 0
836 15 -837 0
-837 -17 -838 0
-837 17 838 0
837 -17 838 0
837 17 -838 0
-838 -18 -839 0
-838 18 839 0
838 -18 839 0
838 18 -839 0
-839 -19 -840 0
-839 19 840 0
839 -19 840 0
839 19 -840 0
-840 -20 -841 0
-840 20 841 0
840 -20 841 0
840 20 -841 0
-21 -22 -842 0
-21 22 842 0
21 -22 842 0
21 22 -842 0
-842 -24 -843 0
-842 24 843 0
842 -24 843 0
842 24 -843 0
-843 -25 -844 0
-843 25 844 0
843 -25 844 0
843 25 -844 0
-844 -27 -845 0
-844 27 845 0
844 -27 845 0
844 27 -845 0
-845 -28 -846 0
-845 28 846 0
845 -28 846 0
845 28 -846 0
-846 -29 -847 0
-846 29 847 0
846 -29 847 0
846 29 -847 0
-847 -30 -848 0
-847 30 848 0
847 -30 848 0
847 30 -848 0
841 848 0
-2 -3 -849 0
-2 3 849 0
2 -3 849 0
2 3 -849 0
-849 -6 -850 0
-849 6 850 0
849 -6 850 0
849 6 -850 0
-850 -7 -851 0
-850 7 851 0
850 -7 851 0
850 7 -851 0
-851 -12 -852 0
-851 12 852 0
851 -12 852 0
851 12 -852 0
-852 -13 -853 0
-852 13 853 0
852 -13 853 0
852 13 -853 0
-853 -16 -854 0
-853 16 854 0
853 -16 854 0
853 16 -854 0
-854 -17 -855 0
-854 17 855 0
854 -17 855 0
854 17 -855 0
-855 -22 -856 0
-855 22 856 0
855 -22 856 0
855 22 -856 0
-856 -23 -857 0
-856 23 857 0
856 -23 857 0
856 23 -857 0
-857 -26 -858 0
-857 26 858 0
857 -26 858 0
857 26 -858 0
-858 -27 -859 0
-858 27 859 0
858 -27 859 0
858 27 -859 0
-12 -13 -860 0
-12 13 860 0
12 -13 860 0
12 13 -860 0
-860 -16 -861 0
-860 16 861 0
860 -16 861 0
860 16 -861 0
-861 -17 -862 0
-861 17 862 0
861 -17 862 0
861 17 -862 0
-862 -32 -863 0
-862 32 863 0
862 -32 863 0
862 32 -863 0
-863 -33 -864 0
-863 33 864 0
863 -33 864 0
863 33 -864 0
-864 -36 -865 0
-864 36 865 0
864 -36 865 0
864 36 -865 0
-865 -37 -866 0
-865 37 866 0
865 -37 866 0
865 37 -866 0
859 866 0
-21 -22 -867 0
-21 22 867 0
21 -22 867 0
21 22 -867 0
-867 -25 -868 0
-867 25 868 0
867 -25 868 0
867 25 -868 0
-868 -26 -869 0
-868 26 869 0
868 -26 869 0
868 26 -869 0
-869 -27 -870 0
-869 27 870 0
869 -27 870 0
869 27 -870 0
-11 -12 -871 0
-11 12 871 0
11 -12 871 0
11 12 -871 0
-871 -15 -872 0
-871 15 872 0
871 -15 872 0
871 15 -872 0
-872 -16 -873 0
-872 16 873 0
872 -16 873 0
872 16 -873 0
-873 -17 -874 0
-873 17 874 0
873 -17 874 0
873 17 -874 0
-874 -31 -875 0
-874 31 875 0
874 -31 875 0
874 31 -875 0
-875 -32 -876 0
-875 32 876 0
875 -32 876 0
875 32 -876 0
-876 -35 -877 0
-876 35 877 0
876 -35 877 0
876 35 -877 0
-877 -36 -878 0
-877 36 878 0
877 -36 878 0
877 36 -878 0
-878 -37 -879 0
-878 37 879 0
878 -37 879 0
878 37 -879 0
870 879 0
-21 -22 -880 0
-21 22 880 0
21 -22 880 0
21 22 -880 0
-880 -28 -881 0
-880 28 881 0
880 -28 881 0
880 28 -881 0
-1 -2 -882 0
-1 2 882 0
1 -2 882 0
1 2 -882 0
-882 -8 -883 0
-882 8 883 0
882 -8 883 0
882 8 -883 0
-883 -11 -884 0
-883 11 884 0
883 -11 884 0
883 11 -884 0
-884 -12 -885 0
-884 12 885 0
884 -12 885 0
884 12 -885 0
-885 -18 -886 0
-885 18 886 0
885 -18 886 0
885 18 -886 0
-886 -31 -887 0
-886 31 887 0
886 -31 887 0
886 31 -887 0
-887 -32 -888 0
-887 32 888 0
887 -32 888 0
887 32 -888 0
-888 -38 -889 0
-888 38 889 0
888 -38 889 0
888 38 -889 0
881 889 0
-21 -24 -890 0
-21 24 890 0
21 -24 890 0
21 24 -890 0
-890 -25 -891 0
-890 25 891 0
890 -25 891 0
890 25 -891 0
-891 -28 -892 0
-891 28 892 0
891 -28 892 0
891 28 -892 0
-31 -34 -893 0
-31 34 893 0
31 -34 893 0
31 34 -893 0
-893 -35 -894 0
-893 35 894 0
893 -35 894 0
893 35 -894 0
-894 -38 -895 0
-894 38 895 0
894 -38 895 0
894 38 -895 0
892 895 0
-1 -6 -896 0
-1 6 896 0
1 -6 896 0
1 6 -896 0
-896 -8 -897 0
-896 8 897 0
896 -8 897 0
896 8 -897 0
-897 -21 -898 0
-897 21 898 0
897 -21 898 0
897 21 -898 0
-898 -26 -899 0
-898 26 899 0
898 -26 899 0
898 26 -899 0
-899 -28 -900 0
-899 28 900 0
899 -28 900 0
899 28 -900 0
-1 -6 -901 0
-1 6 901 0
1 -6 901 0
1 6 -901 0
-901 -8 -902 0
-901 8 902 0
901 -8 902 0
901 8 -902 0
-902 -11 -903 0
-902 11 903 0
902 -11 903 0
902 11 -903 0
-903 -16 -904 0
-903 16 904 0
903 -16 904 0
903 16 -904 0
-904 -18 -905 0
-904 18 905 0
904 -18 905 0
904 18 -905 0
-905 -31 -906 0
-905 31 906 0
905 -31 906 0
905 31 -906 0
-906 -36 -907 0
-906 36 907 0
906 -36 907 0
906 36 -907 0
-907 -38 -908 0
-907 38 908 0
907 -38 908 0
907 38 -908 0
900 908 0
-12 -16 -909 0
-12 16 909 0
12 -16 909 0
12 16 -909 0
-909 -18 -910 0
-909 18 910 0
909 -18 910 0
909 18 -910 0
-910 -22 -911 0
-910 22 911 0
910 -22 911 0
910 22 -911 0
-911 -26 -912 0
-911 26 912 0
911 -26 912 0
911 26 -912 0
-912 -28 -913 0
-912 28 913 0
912 -28 913 0
912 28 -913 0
-2 -6 -914 0
-2 6 914 0
2 -6 914 0
2 6 -914 0
-914 -8 -915 0
-914 8 915 0
914 -8 915 0
914 8 -915 0
-915 -32 -916 0
-915 32 916 0
915 -32 916 0
915 32 -916 0
-916 -36 -917 0
-916 36 917 0
916 -36 917 0
916 36 -917 0
-917 -38 -918 0
-917 38 918 0
917 -38 918 0
917 38 -918 0
913 918 0
-12 -13 -919 0
-12 13 919 0
12 -13 919 0
12 13 -919 0
-919 -14 -920 0
-919 14 920 0
919 -14 920 0
919 14 -920 0
-920 -17 -921 0
-920 17 921 0
920 -17 921 0
920 17 -921 0
-921 -18 -922 0
-921 18 922 0
921 -18 922 0
921 18 -922 0
-922 -22 -923 0
-922 22 923 0
922 -22 923 0
922 22 -923 0
-923 -23 -924 0
-923 23 924 0
923 -23 924 0
923 23 -924 0
-924 -24 -925 0
-924 24 925 0
924 -24 925 0
924 24 -925 0
-925 -27 -926 0
-925 27 926 0
925 -27 926 0
925 27 -926 0
-926 -28 -927 0
-926 28 927 0
926 -28 927 0
926 28 -927 0
-12 -13 -928 0
-12 13 928 0
12 -13 928 0
12 13 -928 0
-928 -14 -929 0
-928 14 929 0
928 -14 929 0
928 14 -929 0
-929 -17 -930 0
-929 17 930 0
929 -17 930 0
929 17 -930 0
-930 -18 -931 0
-930 18 931 0
930 -18 931 0
930 18 -931 0
-931 -32 -932 0
-931 32 932 0
931 -32 932 0
931 32 -932 0
-932 -33 -933 0
-932 33 933 0
932 -33 933 0
932 33 -933 0
-933 -34 -934 0
-933 34 934 0
933 -34 934 0
933 34 -934 0
-934 -37 -935 0
-934 37 935 0
934 -37 935 0
934 37 -935 0
-935 -38 -936 0
-935 38 936 0
935 -38 936 0
935 38 -936 0
927 936 0
-1 -2 -937 0
-1 2 937 0
1 -2 937 0
1 2 -937 0
-937 -3 -938 0
-937 3 938 0
937 -3 938 0
937 3 -938 0
-938 -4 -939 0
-938 4 939 0
938 -4 939 0
938 4 -939 0
-939 -7 -940 0
-939 7 940 0
939 -7 940 0
939 7 -940 0
-940 -8 -941 0
-940 8 941 0
940 -8 941 0
940 8 -941 0
-941 -11 -942 0
-941 11 942 0
941 -11 942 0
941 11 -942 0
-942 -12 -943 0
-942 12 943 0
942 -12 943 0
942 12 -943 0
-943 -13 -944 0
-943 13 944 0
943 -13 944 0
943 13 -944 0
-944 -14 -945 0
-944 14 945 0
944 -14 945 0
944 14 -945 0
-945 -17 -946 0
-945 17 946 0
945 -17 946 0
945 17 -946 0
-946 -18 -947 0
-946 18 947 0
946 -18 947 0
946 18 -947 0
-947 -21 -948 0
-947 21 948 0
947 -21 948 0
947 21 -948 0
-948 -22 -949 0
-948 22 949 0
948 -22 949 0
948 22 -949 0
-949 -23 -950 0
-949 23 950 0
949 -23 950 0
949 23 -950 0
-950 -24 -951 0
-950 24 951 0
950 -24 951 0
950 24 -951 0
-951 -27 -952 0
-951 27 952 0
951 -27 952 0
951 27 -952 0
-952 -28 -953 0
-952 28 953 0
952 -28 953 0
952 28 -953 0
-31 -32 -954 0
-31 32 954 0
31 -32 954 0
31 32 -954 0
-954 -33 -955 0
-954 33 955 0
954 -33 955 0
954 33 -955 0
-955 -34 -956 0
-955 34 956 0
955 -34 956 0
955 34 -956 0
-956 -37 -957 0
-956 37 957 0
956 -37 957 0
956 37 -957 0
-957 -38 -958 0
-957 38 958 0
957 -38 958 0
957 38 -958 0
953 958 0
-2 -5 -959 0
-2 5 959 0
2 -5 959 0
2 5 -959 0
-959 -7 -960 0
-959 7 960 0
959 -7 960 0
959 7 -960 0
-960 -8 -961 0
-960 8 961 0
960 -8 961 0
960 8 -961 0
-961 -12 -962 0
-961 12 962 0
961 -12 962 0
961 12 -962 0
-962 -15 -963 0
-962 15 963 0
962 -15 963 0
962 15 -963 0
-963 -17 -964 0
-963 17 964 0
963 -17 964 0
963 17 -964 0
-964 -18 -965 0
-964 18 965 0
964 -18 965 0
964 18 -965 0
-965 -22 -966 0
-965 22 966 0
965 -22 966 0
965 22 -966 0
-966 -25 -967 0
-966 25 967 0
966 -25 967 0
966 25 -967 0
-967 -27 -968 0
-967 27 968 0
967 -27 968 0
967 27 -968 0
-968 -28 -969 0
-968 28 969 0
968 -28 969 0
968 28 -969 0
-2 -5 -970 0
-2 5 970 0
2 -5 970 0
2 5 -970 0
-970 -7 -971 0
-970 7 971 0
970 -7 971 0
970 7 -971 0
-971 -8 -972 0
-971 8 972 0
971 -8 972 0
971 8 -972 0
-972 -32 -973 0
-972 32 973 0
972 -32 973 0
972 32 -973 0
-973 -35 -974 0
-973 35 974 0
973 -35 974 0
973 35 -974 0
-974 -37 -975 0
-974 37 975 0
974 -37 975 0
974 37 -975 0
-975 -38 -976 0
-975 38 976 0
975 -38 976 0
975 38 -976 0
969 976 0
-11 -12 -977 0
-11 12 977 0
11 -12 977 0
11 12 -977 0
-977 -13 -978 0
-977 13 978 0
977 -13 978 0
977 13 -978 0
-978 -14 -979 0
-978 14 979 0
978 -14 979 0
978 14 -979 0
-979 -15 -980 0
-979 15 980 0
979 -15 980 0
979 15 -980 0
-980 -17 -981 0
-980 17 981 0
980 -17 981 0
980 17 -981 0
-981 -18 -982 0
-981 18 982 0
981 -18 982 0
981 18 -982 0
-982 -21 -983 0
-982 21 983 0
982 -21 983 0
982 21 -983 0
-983 -22 -984 0
-983 22 984 0
983 -22 984 0
983 22 -984 0
-984 -23 -985 0
-984 23 985 0
984 -23 985 0
984 23 -985 0
-985 -24 -986 0
-985 24 986 0
985 -24 986 0
985 24 -986 0
-986 -25 -987 0
-986 25 987 0
986 -25 987 0
986 25 -987 0
-987 -27 -988 0
-987 27 988 0
987 -27 988 0
987 27 -988 0
-988 -28 -989 0
-988 28 989 0
988 -28 989 0
988 28 -989 0
-1 -2 -990 0
-1 2 990 0
1 -2 990 0
1 2 -990 0
-990 -3 -991 0
-990 3 991 0
990 -3 991 0
990 3 -991 0
-991 -4 -992 0
-991 4 992 0
991 -4 992 0
991 4 -992 0
-992 -5 -993 0
-992 5 993 0
992 -5 993 0
992 5 -993 0
-993 -7 -994 0
-993 7 994 0
993 -7 994 0
993 7 -994 0
-994 -8 -995 0
-994 8 995 0
994 -8 995 0
994 8 -995 0
-995 -11 -996 0
-995 11 996 0
995 -11 996 0
995 11 -996 0
-996 -12 -997 0
-996 12 997 0
996 -12 997 0
996 12 -997 0
-997 -13 -998 0
-997 13 998 0
997 -13 998 0
997 13 -998 0
-998 -14 -999 0
-998 14 999 0
998 -14 999 0
998 14 -999 0
-999 -15 -1000 0
-999 15 1000 0
999 -15 1000 0
999 15 -1000 0
-1000 -17 -1001 0
-1000 17 1001 0
1000 -17 1001 0
1000 17 -1001 0
-1001 -18 -1002 0
-1001 18 1002 0
1001 -18 1002 0
1001 18 -1002 0
-1002 -31 -1003 0
-1002 31 1003 0
1002 -31 1003 0
1002 31 -1003 0
-1003 -32 -1004 0
-1003 32 1004 0
1003 -32 1004 0
1003 32 -1004 0
-1004 -33 -1005 0
-1004 33 1005 0
1004 -33 1005 0
1004 33 -1005 0
-1005 -34 -1006 0
-1005 34 1006 0
1005 -34 1006 0
1005 34 -1006 0
-1006 -35 -1007 0
-1006 35 1007 0
1006 -35 1007 0
1006 35 -1007 0
-1007 -37 -1008 0
-1007 37 1008 0
1007 -37 1008 0
1007 37 -1008 0
-1008 -38 -1009 0
-1008 38 1009 0
1008 -38 1009 0
1008 38 -1009 0
989 1009 0
-11 -13 -1010 0
-11 13 1010 0
11 -13 1010 0
11 13 -1010 0
-1010 -14 -1011 0
-1010 14 1011 0
1010 -14 1011 0
1010 14 -1011 0
-1011 -19 -1012 0
-1011 19 1012 0
1011 -19 1012 0
1011 19 -1012 0
-1012 -21 -1013 0
-1012 21 1013 0
1012 -21 1013 0
1012 21 -1013 0
-1013 -23 -1014 0
-1013 23 1014 0
1013 -23 1014 0
1013 23 -1014 0
-1014 -24 -1015 0
-1014 24 1015 0
1014 -24 1015 0
1014 24 -1015 0
-1015 -29 -1016 0
-1015 29 1016 0
1015 -29 1016 0
1015 29 -1016 0
-1 -3 -1017 0
-1 3 1017 0
1 -3 1017 0
1 3 -1017 0
-1017 -4 -1018 0
-1017 4 1018 0
1017 -4 1018 0
1017 4 -1018 0
-1018 -9 -1019 0
-1018 9 1019 0
1018 -9 1019 0
1018 9 -1019 0
-1019 -11 -1020 0
-1019 11 1020 0
1019 -11 1020 0
1019 11 -1020 0
-1020 -13 -1021 0
-1020 13 1021 0
1020 -13 1021 0
1020 13 -1021 0
-1021 -14 -1022 0
-1021 14 1022 0
1021 -14 1022 0
1021 14 -1022 0
-1022 -19 -1023 0
-1022 19 1023 0
1022 -19 1023 0
1022 19 -1023 0
-1023 -31 -1024 0
-1023 31 1024 0
1023 -31 1024 0
1023 31 -1024 0
-1024 -33 -1025 0
-1024 33 1025 0
1024 -33 1025 0
1024 33 -1025 0
-1025 -34 -1026 0
-1025 34 1026 0
1025 -34 1026 0
1025 34 -1026 0
-1026 -39 -1027 0
-1026 39 1027 0
1026 -39 1027 0
1026 39 -1027 0
1016 1027 0
-1 -5 -1028 0
-1 5 1028 0
1 -5 1028 0
1 5 -1028 0
-1028 -9 -1029 0
-1028 9 1029 0
1028 -9 1029 0
1028 9 -1029 0
-1029 -11 -1030 0
-1029 11 1030 0
1029 -11 1030 0
1029 11 -1030 0
-1030 -15 -1031 0
-1030 15 1031 0
1030 -15 1031 0
1030 15 -1031 0
-1031 -19 -1032 0
-1031 19 1032 0
1031 -19 1032 0
1031 19 -1032 0
-1032 -21 -1033 0
-1032 21 1033 0
1032 -21 1033 0
1032 21 -1033 0
-1033 -25 -1034 0
-1033 25 1034 0
1033 -25 1034 0
1033 25 -1034 0
-1034 -29 -1035 0
-1034 29 1035 0
1034 -29 1035 0
1034 29 -1035 0
-31 -35 -1036 0
-31 35 1036 0
31 -35 1036 0
31 35 -1036 0
-1036 -39 -1037 0
-1036 39 1037 0
1036 -39 1037 0
1036 39 -1037 0
1035 1037 0
-11 -12 -1038 0
-11 12 1038 0
11 -12 1038 0
11 12 -1038 0
-1038 -15 -1039 0
-1038 15 1039 0
1038 -15 1039 0
1038 15 -1039 0
-1039 -19 -1040 0
-1039 19 1040 0
1039 -19 1040 0
1039 19 -1040 0
-1040 -21 -1041 0
-1040 21 1041 0
1040 -21 1041 0
1040 21 -1041 0
-1041 -22 -1042 0
-1041 22 1042 0
1041 -22 1042 0
1041 22 -1042 0
-1042 -25 -1043 0
-1042 25 1043 0
1042 -25 1043 0
1042 25 -1043 0
-1043 -29 -1044 0
-1043 29 1044 0
1043 -29 1044 0
1043 29 -1044 0
-11 -12 -1045 0
-11 12 1045 0
11 -12 1045 0
11 12 -1045 0
-1045 -15 -1046 0
-1045 15 1046 0
1045 -15 1046 0
1045 15 -1046 0
-1046 -19 -1047 0
-1046 19 1047 0
1046 -19 1047 0
1046 19 -1047 0
-1047 -31 -1048 0
-1047 31 1048 0
1047 -31 1048 0
1047 31 -1048 0
-1048 -32 -1049 0
-1048 32 1049 0
1048 -32 1049 0
1048 32 -1049 0
-1049 -35 -1050 0
-1049 35 1050 0
1049 -35 1050 0
1049 35 -1050 0
-1050 -39 -1051 0
-1050 39 1051 0
1050 -39 1051 0
1050 39 -1051 0
1044 1051 0
-1 -2 -1052 0
-1 2 1052 0
1 -2 1052 0
1 2 -1052 0
-1052 -3 -1053 0
-1052 3 1053 0
1052 -3 1053 0
1052 3 -1053 0
-1053 -4 -1054 0
-1053 4 1054 0
1053 -4 1054 0
1053 4 -1054 0
-1054 -5 -1055 0
-1054 5 1055 0
1054 -5 1055 0
1054 5 -1055 0
-1055 -9 -1056 0
-1055 9 1056 0
1055 -9 1056 0
1055 9 -1056 0
-1056 -11 -1057 0
-1056 11 1057 0
1056 -11 1057 0
1056 11 -1057 0
-1057 -12 -1058 0
-1057 12 1058 0
1057 -12 1058 0
1057 12 -1058 0
-1058 -13 -1059 0
-1058 13 1059 0
1058 -13 1059 0
1058 13 -1059 0
-1059 -14 -1060 0
-1059 14 1060 0
1059 -14 1060 0
1059 14 -1060 0
-1060 -15 -1061 0
-1060 15 1061 0
1060 -15 1061 0
1060 15 -1061 0
-1061 -19 -1062 0
-1061 19 1062 0
1061 -19 1062 0
1061 19 -1062 0
-1062 -21 -1063 0
-1062 21 1063 0
1062 -21 1063 0
1062 21 -1063 0
-1063 -22 -1064 0
-1063 22 1064 0
1063 -22 1064 0
1063 22 -1064 0
-1064 -23 -1065 0
-1064 23 1065 0
1064 -23 1065 0
1064 23 -1065 0
-1065 -24 -1066 0
-1065 24 1066 0
1065 -24 1066 0
1065 24 -1066 0
-1066 -25 -1067 0
-1066 25 1067 0
1066 -25 1067 0
1066 25 -1067 0
-1067 -29 -1068 0
-1067 29 1068 0
1067 -29 1068 0
1067 29 -1068 0
-1 -2 -1069 0
-1 2 1069 0
1 -2 1069 0
1 2 -1069 0
-1069 -3 -1070 0
-1069 3 1070 0
1069 -3 1070 0
1069 3 -1070 0
-1070 -4 -1071 0
-1070 4 1071 0
1070 -4 1071 0
1070 4 -1071 0
-1071 -5 -1072 0
-1071 5 1072 0
1071 -5 1072 0
1071 5 -1072 0
-1072 -9 -1073 0
-1072 9 1073 0
1072 -9 1073 0
1072 9 -1073 0
-1073 -31 -1074 0
-1073 31 1074 0
1073 -31 1074 0
1073 31 -1074 0
-1074 -32 -1075 0
-1074 32 1075 0
1074 -32 1075 0
1074 32 -1075 0
-1075 -33 -1076 0
-1075 33 1076 0
1075 -33 1076 0
1075 33 -1076 0
-1076 -34 -1077 0
-1076 34 1077 0
1076 -34 1077 0
1076 34 -1077 0
-1077 -35 -1078 0
-1077 35 1078 0
1077 -35 1078 0
1077 35 -1078 0
-1078 -39 -1079 0
-1078 39 1079 0
1078 -39 1079 0
1078 39 -1079 0
1068 1079 0
-2 -4 -1080 0
-2 4 1080 0
2 -4 1080 0
2 4 -1080 0
-1080 -6 -1081 0
-1080 6 1081 0
1080 -6 1081 0
1080 6 -1081 0
-1081 -7 -1082 0
-1081 7 1082 0
1081 -7 1082 0
1081 7 -1082 0
-1082 -9 -1083 0
-1082 9 1083 0
1082 -9 1083 0
1082 9 -1083 0
-1083 -12 -1084 0
-1083 12 1084 0
1083 -12 1084 0
1083 12 -1084 0
-1084 -14 -1085 0
-1084 14 1085 0
1084 -14 1085 0
1084 14 -1085 0
-1085 -16 -1086 0
-1085 16 1086 0
1085 -16 1086 0
1085 16 -1086 0
-1086 -17 -1087 0
-1086 17 1087 0
1086 -17 1087 0
1086 17 -1087 0
-1087 -19 -1088 0
-1087 19 1088 0
1087 -19 1088 0
1087 19 -1088 0
-1088 -22 -1089 0
-1088 22 1089 0
1088 -22 1089 0
1088 22 -1089 0
-1089 -24 -1090 0
-1089 24 1090 0
1089 -24 1090 0
1089 24 -1090 0
-1090 -26 -1091 0
-1090 26 1091 0
1090 -26 1091 0
1090 26 -1091 0
-1091 -27 -1092 0
-1091 27 1092 0
1091 -27 1092 0
1091 27 -1092 0
-1092 -29 -1093 0
-1092 29 1093 0
1092 -29 1093 0
1092 29 -1093 0
-2 -4 -1094 0
-2 4 1094 0
2 -4 1094 0
2 4 -1094 0
-1094 -6 -1095 0
-1094 6 1095 0
1094 -6 1095 0
1094 6 -1095 0
-1095 -7 -1096 0
-1095 7 1096 0
1095 -7 1096 0
1095 7 -1096 0
-1096 -9 -1097 0
-1096 9 1097 0
1096 -9 1097 0
1096 9 -1097 0
-1097 -12 -1098 0
-1097 12 1098 0
1097 -12 1098 0
1097 12 -1098 0
-1098 -14 -1099 0
-1098 14 1099 0
1098 -14 1099 0
1098 14 -1099 0
-1099 -16 -1100 0
-1099 16 1100 0
1099 -16 1100 0
1099 16 -1100 0
-1100 -17 -1101 0
-1100 17 1101 0
1100 -17 1101 0
1100 17 -1101 0
-1101 -19 -1102 0
-1101 19 1102 0
1101 -19 1102 0
1101 19 -1102 0
-1102 -32 -1103 0
-1102 32 1103 0
1102 -32 1103 0
1102 32 -1103 0
-1103 -34 -1104 0
-1103 34 1104 0
1103 -34 1104 0
1103 34 -1104 0
-1104 -36 -1105 0
-1104 36 1105 0
1104 -36 1105 0
1104 36 -1105 0
-1105 -37 -1106 0
-1105 37 1106 0
1105 -37 1106 0
1105 37 -1106 0
-1106 -39 -1107 0
-1106 39 1107 0
1106 -39 1107 0
1106 39 -1107 0
1093 1107 0
-1 -2 -1108 0
-1 2 1108 0
1 -2 1108 0
1 2 -1108 0
-1108 -3 -1109 0
-1108 3 1109 0
1108 -3 1109 0
1108 3 -1109 0
-1109 -4 -1110 0
-1109 4 1110 0
1109 -4 1110 0
1109 4 -1110 0
-1110 -6 -1111 0
-1110 6 1111 0
1110 -6 1111 0
1110 6 -1111 0
-1111 -7 -1112 0
-1111 7 1112 0
1111 -7 1112 0
1111 7 -1112 0
-1112 -9 -1113 0
-1112 9 1113 0
1112 -9 1113 0
1112 9 -1113 0
-1113 -21 -1114 0
-1113 21 1114 0
1113 -21 1114 0
1113 21 -1114 0
-1114 -22 -1115 0
-1114 22 1115 0
1114 -22 1115 0
1114 22 -1115 0
-1115 -23 -1116 0
-1115 23 1116 0
1115 -23 1116 0
1115 23 -1116 0
-1116 -24 -1117 0
-1116 24 1117 0
1116 -24 1117 0
1116 24 -1117 0
-1117 -26 -1118 0
-1117 26 1118 0
1117 -26 1118 0
1117 26 -1118 0
-1118 -27 -1119 0
-1118 27 1119 0
1118 -27 1119 0
1118 27 -1119 0
-1119 -29 -1120 0
-1119 29 1120 0
1119 -29 1120 0
1119 29 -1120 0
-1 -2 -1121 0
-1 2 1121 0
1 -2 1121 0
1 2 -1121 0
-1121 -3 -1122 0
-1121 3 1122 0
1121 -3 1122 0
1121 3 -1122 0
-1122 -4 -1123 0
-1122 4 1123 0
1122 -4 1123 0
1122 4 -1123 0
-1123 -6 -1124 0
-1123 6 1124 0
1123 -6 1124 0
1123 6 -1124 0
-1124 -7 -1125 0
-1124 7 1125 0
1124 -7 1125 0
1124 7 -1125 0
-1125 -9 -1126 0
-1125 9 1126 0
1125 -9 1126 0
1125 9 -1126 0
-1126 -31 -1127 0
-1126 31 1127 0
1126 -31 1127 0
1126 31 -1127 0
-1127 -32 -1128 0
-1127 32 1128 0
1127 -32 1128 0
1127 32 -1128 0
-1128 -33 -1129 0
-1128 33 1129 0
1128 -33 1129 0
1128 33 -1129 0
-1129 -34 -1130 0
-1129 34 1130 0
1129 -34 1130 0
1129 34 -1130 0
-1130 -36 -1131 0
-1130 36 1131 0
1130 -36 1131 0
1130 36 -1131 0
-1131 -37 -1132 0
-1131 37 1132 0
1131 -37 1132 0
1131 37 -1132 0
-1132 -39 -1133 0
-1132 39 1133 0
1132 -39 1133 0
1132 39 -1133 0
1120 1133 0
-1 -2 -1134 0
-1 2 1134 0
1 -2 1134 0
1 2 -1134 0
-1134 -8 -1135 0
-1134 8 1135 0
1134 -8 1135 0
1134 8 -1135 0
-1135 -9 -1136 0
-1135 9 1136 0
1135 -9 1136 0
1135 9 -1136 0
-1136 -21 -1137 0
-1136 21 1137 0
1136 -21 1137 0
1136 21 -1137 0
-1137 -22 -1138 0
-1137 22 1138 0
1137 -22 1138 0
1137 22 -1138 0
-1138 -28 -1139 0
-1138 28 1139 0
1138 -28 1139 0
1138 28 -1139 0
-1139 -29 -1140 0
-1139 29 1140 0
1139 -29 1140 0
1139 29 -1140 0
-31 -32 -1141 0
-31 32 1141 0
31 -32 1141 0
31 32 -1141 0
-1141 -38 -1142 0
-1141 38 1142 0
1141 -38 1142 0
1141 38 -1142 0
-1142 -39 -1143 0
-1142 39 1143 0
1142 -39 1143 0
1142 39 -1143 0
1140 1143 0
-1 -4 -1144 0
-1 4 1144 0
1 -4 1144 0
1 4 -1144 0
-1144 -8 -1145 0
-1144 8 1145 0
1144 -8 1145 0
1144 8 -1145 0
-1145 -9 -1146 0
-1145 9 1146 0
1145 -9 1146 0
1145 9 -1146 0
-1146 -21 -1147 0
-1146 21 1147 0
1146 -21 1147 0
1146 21 -1147 0
-1147 -24 -1148 0
-1147 24 1148 0
1147 -24 1148 0
1147 24 -1148 0
-1148 -28 -1149 0
-1148 28 1149 0
1148 -28 1149 0
1148 28 -1149 0
-1149 -29 -1150 0
-1149 29 1150 0
1149 -29 1150 0
1149 29 -1150 0
-11 -14 -1151 0
-11 14 1151 0
11 -14 1151 0
11 14 -1151 0
-1151 -18 -1152 0
-1151 18 1152 0
1151 -18 1152 0
1151 18 -1152 0
-1152 -19 -1153 0
-1152 19 1153 0
1152 -19 1153 0
1152 19 -1153 0
-1153 -31 -1154 0
-1153 31 1154 0
1153 -31 1154 0
1153 31 -1154 0
-1154 -34 -1155 0
-1154 34 1155 0
1154 -34 1155 0
1154 34 -1155 0
-1155 -38 -1156 0
-1155 38 1156 0
1155 -38 1156 0
1155 38 -1156 0
-1156 -39 -1157 0
-1156 39 1157 0
1156 -39 1157 0
1156 39 -1157 0
1150 1157 0
-21 -23 -1158 0
-21 23 1158 0
21 -23 1158 0
21 23 -1158 0
-1158 -24 -1159 0
-1158 24 1159 0
1158 -24 1159 0
1158 24 -1159 0
-1159 -25 -1160 0
-1159 25 1160 0
1159 -25 1160 0
1159 25 -1160 0
-1160 -26 -1161 0
-1160 26 1161 0
1160 -26 1161 0
1160 26 -1161 0
-1161 -28 -1162 0
-1161 28 1162 0
1161 -28 1162 0
1161 28 -1162 0
-1162 -29 -1163 0
-1162 29 1163 0
1162 -29 1163 0
1162 29 -1163 0
-1 -3 -1164 0
-1 3 1164 0
1 -3 1164 0
1 3 -1164 0
-1164 -4 -1165 0
-1164 4 1165 0
1164 -4 1165 0
1164 4 -1165 0
-1165 -5 -1166 0
-1165 5 1166 0
1165 -5 1166 0
1165 5 -1166 0
-1166 -6 -1167 0
-1166 6 1167 0
1166 -6 1167 0
1166 6 -1167 0
-1167 -8 -1168 0
-1167 8 1168 0
1167 -8 1168 0
1167 8 -1168 0
-1168 -9 -1169 0
-1168 9 1169 0
1168 -9 1169 0
1168 9 -1169 0
-1169 -31 -1170 0
-1169 31 1170 0
1169 -31 1170 0
1169 31 -1170 0
-1170 -33 -1171 0
-1170 33 1171 0
1170 -33 1171 0
1170 33 -1171 0
-1171 -34 -1172 0
-1171 34 1172 0
1171 -34 1172 0
1171 34 -1172 0
-1172 -35 -1173 0
-1172 35 1173 0
1172 -35 1173 0
1172 35 -1173 0
-1173 -36 -1174 0
-1173 36 1174 0
1173 -36 1174 0
1173 36 -1174 0
-1174 -38 -1175 0
-1174 38 1175 0
1174 -38 1175 0
1174 38 -1175 0
-1175 -39 -1176 0
-1175 39 1176 0
1175 -39 1176 0
1175 39 -1176 0
1163 1176 0
-12 -13 -1177 0
-12 13 1177 0
12 -13 1177 0
12 13 -1177 0
-1177 -14 -1178 0
-1177 14 1178 0
1177 -14 1178 0
1177 14 -1178 0
-1178 -15 -1179 0
-1178 15 1179 0
1178 -15 1179 0
1178 15 -1179 0
-1179 -16 -1180 0
-1179 16 1180 0
1179 -16 1180 0
1179 16 -1180 0
-1180 -18 -1181 0
-1180 18 1181 0
1180 -18 1181 0
1180 18 -1181 0
-1181 -19 -1182 0
-1181 19 1182 0
1181 -19 1182 0
1181 19 -1182 0
-1182 -22 -1183 0
-1182 22 1183 0
1182 -22 1183 0
1182 22 -1183 0
-1183 -23 -1184 0
-1183 23 1184 0
1183 -23 1184 0
1183 23 -1184 0
-1184 -24 -1185 0
-1184 24 1185 0
1184 -24 1185 0
1184 24 -1185 0
-1185 -25 -1186 0
-1185 25 1186 0
1185 -25 1186 0
1185 25 -1186 0
-1186 -26 -1187 0
-1186 26 1187 0
1186 -26 1187 0
1186 26 -1187 0
-1187 -28 -1188 0
-1187 28 1188 0
1187 -28 1188 0
1187 28 -1188 0
-1188 -29 -1189 0
-1188 29 1189 0
1188 -29 1189 0
1188 29 -1189 0
-32 -33 -1190 0
-32 33 1190 0
32 -33 1190 0
32 33 -1190 0
-1190 -34 -1191 0
-1190 34 1191 0
1190 -34 1191 0
1190 34 -1191 0
-1191 -35 -1192 0
-1191 35 1192 0
1191 -35 1192 0
1191 35 -1192 0
-1192 -36 -1193 0
-1192 36 1193 0
1192 -36 1193 0
1192 36 -1193 0
-1193 -38 -1194 0
-1193 38 1194 0
1193 -38 1194 0
1193 38 -1194 0
-1194 -39 -1195 0
-1194 39 1195 0
1194 -39 1195 0
1194 39 -1195 0
1189 1195 0
-1 -3 -1196 0
-1 3 1196 0
1 -3 1196 0
1 3 -1196 0
-1196 -4 -1197 0
-1196 4 1197 0
1196 -4 1197 0
1196 4 -1197 0
-1197 -7 -1198 0
-1197 7 1198 0
1197 -7 1198 0
1197 7 -1198 0
-1198 -8 -1199 0
-1198 8 1199 0
1198 -8 1199 0
1198 8 -1199 0
-1199 -9 -1200 0
-1199 9 1200 0
1199 -9 1200 0
1199 9 -1200 0
-1200 -11 -1201 0
-1200 11 1201 0
1200 -11 1201 0
1200 11 -1201 0
-1201 -13 -1202 0
-1201 13 1202 0
1201 -13 1202 0
1201 13 -1202 0
-1202 -14 -1203 0
-1202 14 1203 0
1202 -14 1203 0
1202 14 -1203 0
-1203 -17 -1204 0
-1203 17 1204 0
1203 -17 1204 0
1203 17 -1204 0
-1204 -18 -1205 0
-1204 18 1205 0
1204 -18 1205 0
1204 18 -1205 0
-1205 -19 -1206 0
-1205 19 1206 0
1205 -19 1206 0
1205 19 -1206 0
-1206 -21 -1207 0
-1206 21 1207 0
1206 -21 1207 0
1206 21 -1207 0
-1207 -23 -1208 0
-1207 23 1208 0
1207 -23 1208 0
1207 23 -1208 0
-1208 -24 -1209 0
-1208 24 1209 0
1208 -24 1209 0
1208 24 -1209 0
-1209 -27 -1210 0
-1209 27 1210 0
1209 -27 1210 0
1209 27 -1210 0
-1210 -28 -1211 0
-1210 28 1211 0
1210 -28 1211 0
1210 28 -1211 0
-1211 -29 -1212 0
-1211 29 1212 0
1211 -29 1212 0
1211 29 -1212 0
-1 -3 -1213 0
-1 3 1213 0
1 -3 1213 0
1 3 -1213 0
-1213 -4 -1214 0
-1213 4 1214 0
1213 -4 1214 0
1213 4 -1214 0
-1214 -7 -1215 0
-1214 7 1215 0
1214 -7 1215 0
1214 7 -1215 0
-1215 -8 -1216 0
-1215 8 1216 0
1215 -8 1216 0
1215 8 -1216 0
-1216 -9 -1217 0
-1216 9 1217 0
1216 -9 1217 0
1216 9 -1217 0
-1217 -31 -1218 0
-1217 31 1218 0
1217 -31 1218 0
1217 31 -1218 0
-1218 -33 -1219 0
-1218 33 1219 0
1218 -33 1219 0
1218 33 -1219 0
-1219 -34 -1220 0
-1219 34 1220 0
1219 -34 1220 0
1219 34 -1220 0
-1220 -37 -1221 0
-1220 37 1221 0
1220 -37 1221 0
1220 37 -1221 0
-1221 -38 -1222 0
-1221 38 1222 0
1221 -38 1222 0
1221 38 -1222 0
-1222 -39 -1223 0
-1222 39 1223 0
1222 -39 1223 0
1222 39 -1223 0
1212 1223 0
-12 -15 -1224 0
-12 15 1224 0
12 -15 1224 0
12 15 -1224 0
-1224 -17 -1225 0
-1224 17 1225 0
1224 -17 1225 0
1224 17 -1225 0
-1225 -18 -1226 0
-1225 18 1226 0
1225 -18 1226 0
1225 18 -1226 0
-1226 -19 -1227 0
-1226 19 1227 0
1226 -19 1227 0
1226 19 -1227 0
-1227 -22 -1228 0
-1227 22 1228 0
1227 -22 1228 0
1227 22 -1228 0
-1228 -25 -1229 0
-1228 25 1229 0
1228 -25 1229 0
1228 25 -1229 0
-1229 -27 -1230 0
-1229 27 1230 0
1229 -27 1230 0
1229 27 -1230 0
-1230 -28 -1231 0
-1230 28 1231 0
1230 -28 1231 0
1230 28 -1231 0
-1231 -29 -1232 0
-1231 29 1232 0
1231 -29 1232 0
1231 29 -1232 0
-2 -5 -1233 0
-2 5 1233 0
2 -5 1233 0
2 5 -1233 0
-1233 -7 -1234 0
-1233 7 1234 0
1233 -7 1234 0
1233 7 -1234 0
-1234 -8 -1235 0
-1234 8 1235 0
1234 -8 1235 0
1234 8 -1235 0
-1235 -9 -1236 0
-1235 9 1236 0
1235 -9 1236 0
1235 9 -1236 0
-1236 -12 -1237 0
-1236 12 1237 0
1236 -12 1237 0
1236 12 -1237 0
-1237 -15 -1238 0
-1237 15 1238 0
1237 -15 1238 0
1237 15 -1238 0
-1238 -17 -1239 0
-1238 17 1239 0
1238 -17 1239 0
1238 17 -1239 0
-1239 -18 -1240 0
-1239 18 1240 0
1239 -18 1240 0
1239 18 -1240 0
-1240 -19 -1241 0
-1240 19 1241 0
1240 -19 1241 0
1240 19 -1241 0
-1241 -32 -1242 0
-1241 32 1242 0
1241 -32 1242 0
1241 32 -1242 0
-1242 -35 -1243 0
-1242 35 1243 0
1242 -35 1243 0
1242 35 -1243 0
-1243 -37 -1244 0
-1243 37 1244 0
1243 -37 1244 0
1243 37 -1244 0
-1244 -38 -1245 0
-1244 38 1245 0
1244 -38 1245 0
1244 38 -1245 0
-1245 -39 -1246 0
-1245 39 1246 0
1245 -39 1246 0
1245 39 -1246 0
1232 1246 0
-11 -13 -1247 0
-11 13 1247 0
11 -13 1247 0
11 13 -1247 0
-1247 -14 -1248 0
-1247 14 1248 0
1247 -14 1248 0
1247 14 -1248 0
-1248 -15 -1249 0
-1248 15 1249 0
1248 -15 1249 0
1248 15 -1249 0
-1249 -17 -1250 0
-1249 17 1250 0
1249 -17 1250 0
1249 17 -1250 0
-1250 -18 -1251 0
-1250 18 1251 0
1250 -18 1251 0
1250 18 -1251 0
-1251 -19 -1252 0
-1251 19 1252 0
1251 -19 1252 0
1251 19 -1252 0
-1252 -21 -1253 0
-1252 21 1253 0
1252 -21 1253 0
1252 21 -1253 0
-1253 -23 -1254 0
-1253 23 1254 0
1253 -23 1254 0
1253 23 -1254 0
-1254 -24 -1255 0
-1254 24 1255 0
1254 -24 1255 0
1254 24 -1255 0
-1255 -25 -1256 0
-1255 25 1256 0
1255 -25 1256 0
1255 25 -1256 0
-1256 -27 -1257 0
-1256 27 1257 0
1256 -27 1257 0
1256 27 -1257 0
-1257 -28 -1258 0
-1257 28 1258 0
1257 -28 1258 0
1257 28 -1258 0
-1258 -29 -1259 0
-1258 29 1259 0
1258 -29 1259 0
1258 29 -1259 0
-11 -13 -1260 0
-11 13 1260 0
11 -13 1260 0
11 13 -1260 0
-1260 -14 -1261 0
-1260 14 1261 0
1260 -14 1261 0
1260 14 -1261 0
-1261 -15 -1262 0
-1261 15 1262 0
1261 -15 1262 0
1261 15 -1262 0
-1262 -17 -1263 0
-1262 17 1263 0
1262 -17 1263 0
1262 17 -1263 0
-1263 -18 -1264 0
-1263 18 1264 0
1263 -18 1264 0
1263 18 -1264 0
-1264 -19 -1265 0
-1264 19 1265 0
1264 -19 1265 0
1264 19 -1265 0
-1265 -31 -1266 0
-1265 31 1266 0
1265 -31 1266 0
1265 31 -1266 0
-1266 -33 -1267 0
-1266 33 1267 0
1266 -33 1267 0
1266 33 -1267 0
-1267 -34 -1268 0
-1267 34 1268 0
1267 -34 1268 0
1267 34 -1268 0
-1268 -35 -1269 0
-1268 35 1269 0
1268 -35 1269 0
1268 35 -1269 0
-1269 -37 -1270 0
-1269 37 1270 0
1269 -37 1270 0
1269 37 -1270 0
-1270 -38 -1271 0
-1270 38 1271 0
1270 -38 1271 0
1270 38 -1271 0
-1271 -39 -1272 0
-1271 39 1272 0
1271 -39 1272 0
1271 39 -1272 0
1259 1272 0
-2 -3 -1273 0
-2 3 1273 0
2 -3 1273 0
2 3 -1273 0
-1273 -4 -1274 0
-1273 4 1274 0
1273 -4 1274 0
1273 4 -1274 0
-1274 -5 -1275 0
-1274 5 1275 0
1274 -5 1275 0
1274 5 -1275 0
-1275 -7 -1276 0
-1275 7 1276 0
1275 -7 1276 0
1275 7 -1276 0
-1276 -8 -1277 0
-1276 8 1277 0
1276 -8 1277 0
1276 8 -1277 0
-1277 -9 -1278 0
-1277 9 1278 0
1277 -9 1278 0
1277 9 -1278 0
-1278 -12 -1279 0
-1278 12 1279 0
1278 -12 1279 0
1278 12 -1279 0
-1279 -13 -1280 0
-1279 13 1280 0
1279 -13 1280 0
1279 13 -1280 0
-1280 -14 -1281 0
-1280 14 1281 0
1280 -14 1281 0
1280 14 -1281 0
-1281 -15 -1282 0
-1281 15 1282 0
1281 -15 1282 0
1281 15 -1282 0
-1282 -17 -1283 0
-1282 17 1283 0
1282 -17 1283 0
1282 17 -1283 0
-1283 -18 -1284 0
-1283 18 1284 0
1283 -18 1284 0
1283 18 -1284 0
-1284 -19 -1285 0
-1284 19 1285 0
1284 -19 1285 0
1284 19 -1285 0
-1285 -22 -1286 0
-1285 22 1286 0
1285 -22 1286 0
1285 22 -1286 0
-1286 -23 -1287 0
-1286 23 1287 0
1286 -23 1287 0
1286 23 -1287 0
-1287 -24 -1288 0
-1287 24 1288 0
1287 -24 1288 0
1287 24 -1288 0
-1288 -25 -1289 0
-1288 25 1289 0
1288 -25 1289 0
1288 25 -1289 0
-1289 -27 -1290 0
-1289 27 1290 0
1289 -27 1290 0
1289 27 -1290 0
-1290 -28 -1291 0
-1290 28 1291 0
1290 -28 1291 0
1290 28 -1291 0
-1291 -29 -1292 0
-1291 29 1292 0
1291 -29 1292 0
1291 29 -1292 0
-32 -33 -1293 0
-32 33 1293 0
32 -33 1293 0
32 33 -1293 0
-1293 -34 -1294 0
-1293 34 1294 0
1293 -34 1294 0
1293 34 -1294 0
-1294 -35 -1295 0
-1294 35 1295 0
1294 -35 1295 0
1294 35 -1295 0
-1295 -37 -1296 0
-1295 37 1296 0
1295 -37 1296 0
1295 37 -1296 0
-1296 -38 -1297 0
-1296 38 1297 0
1296 -38 1297 0
1296 38 -1297 0
-1297 -39 -1298 0
-1297 39 1298 0
1297 -39 1298 0
1297 39 -1298 0
1292 1298 0
-1 -10 -1299 0
-1 10 1299 0
1 -10 1299 0
1 10 -1299 0
-1299 -21 -1300 0
-1299 21 1300 0
1299 -21 1300 0
1299 21 -1300 0
-1300 -30 -1301 0
-1300 30 1301 0
1300 -30 1301 0
1300 30 -1301 0
-31 -40 -1302 0
-31 40 1302 0
31 -40 1302 0
31 40 -1302 0
1301 1302 0
-22 -23 -1303 0
-22 23 1303 0
22 -23 1303 0
22 23 -1303 0
-1303 -25 -1304 0
-1303 25 1304 0
1303 -25 1304 0
1303 25 -1304 0
-1304 -26 -1305 0
-1304 26 1305 0
1304 -26 1305 0
1304 26 -1305 0
-1305 -30 -1306 0
-1305 30 1306 0
1305 -30 1306 0
1305 30 -1306 0
-2 -3 -1307 0
-2 3 1307 0
2 -3 1307 0
2 3 -1307 0
-1307 -5 -1308 0
-1307 5 1308 0
1307 -5 1308 0
1307 5 -1308 0
-1308 -6 -1309 0
-1308 6 1309 0
1308 -6 1309 0
1308 6 -1309 0
-1309 -10 -1310 0
-1309 10 1310 0
1309 -10 1310 0
1309 10 -1310 0
-1310 -32 -1311 0
-1310 32 1311 0
1310 -32 1311 0
1310 32 -1311 0
-1311 -33 -1312 0
-1311 33 1312 0
1311 -33 1312 0
1311 33 -1312 0
-1312 -35 -1313 0
-1312 35 1313 0
1312 -35 1313 0
1312 35 -1313 0
-1313 -36 -1314 0
-1313 36 1314 0
1313 -36 1314 0
1313 36 -1314 0
-1314 -40 -1315 0
-1314 40 1315 0
1314 -40 1315 0
1314 40 -1315 0
1306 1315 0
-11 -12 -1316 0
-11 12 1316 0
11 -12 1316 0
11 12 -1316 0
-1316 -13 -1317 0
-1316 13 1317 0
1316 -13 1317 0
1316 13 -1317 0
-1317 -15 -1318 0
-1317 15 1318 0
1317 -15 1318 0
1317 15 -1318 0
-1318 -16 -1319 0
-1318 16 1319 0
1318 -16 1319 0
1318 16 -1319 0
-1319 -20 -1320 0
-1319 20 1320 0
1319 -20 1320 0
1319 20 -1320 0
-1320 -21 -1321 0
-1320 21 1321 0
1320 -21 1321 0
1320 21 -1321 0
-1321 -22 -1322 0
-1321 22 1322 0
1321 -22 1322 0
1321 22 -1322 0
-1322 -23 -1323 0
-1322 23 1323 0
1322 -23 1323 0
1322 23 -1323 0
-1323 -25 -1324 0
-1323 25 1324 0
1323 -25 1324 0
1323 25 -1324 0
-1324 -26 -1325 0
-1324 26 1325 0
1324 -26 1325 0
1324 26 -1325 0
-1325 -30 -1326 0
-1325 30 1326 0
1325 -30 1326 0
1325 30 -1326 0
-31 -32 -1327 0
-31 32 1327 0
31 -32 1327 0
31 32 -1327 0
-1327 -33 -1328 0
-1327 33 1328 0
1327 -33 1328 0
1327 33 -1328 0
-1328 -35 -1329 0
-1328 35 1329 0
1328 -35 1329 0
1328 35 -1329 0
-1329 -36 -1330 0
-1329 36 1330 0
1329 -36 1330 0
1329 36 -1330 0
-1330 -40 -1331 0
-1330 40 1331 0
1330 -40 1331 0
1330 40 -1331 0
1326 1331 0
-2 -3 -1332 0
-2 3 1332 0
2 -3 1332 0
2 3 -1332 0
-1332 -4 -1333 0
-1332 4 1333 0
1332 -4 1333 0
1332 4 -1333 0
-1333 -5 -1334 0
-1333 5 1334 0
1333 -5 1334 0
1333 5 -1334 0
-1334 -6 -1335 0
-1334 6 1335 0
1334 -6 1335 0
1334 6 -1335 0
-1335 -10 -1336 0
-1335 10 1336 0
1335 -10 1336 0
1335 10 -1336 0
-1336 -22 -1337 0
-1336 22 1337 0
1336 -22 1337 0
1336 22 -1337 0
-1337 -23 -1338 0
-1337 23 1338 0
1337 -23 1338 0
1337 23 -1338 0
-1338 -24 -1339 0
-1338 24 1339 0
1338 -24 1339 0
1338 24 -1339 0
-1339 -25 -1340 0
-1339 25 1340 0
1339 -25 1340 0
1339 25 -1340 0
-1340 -26 -1341 0
-1340 26 1341 0
1340 -26 1341 0
1340 26 -1341 0
-1341 -30 -1342 0
-1341 30 1342 0
1341 -30 1342 0
1341 30 -1342 0
-12 -13 -1343 0
-12 13 1343 0
12 -13 1343 0
12 13 -1343 0
-1343 -14 -1344 0
-1343 14 1344 0
1343 -14 1344 0
1343 14 -1344 0
-1344 -15 -1345 0
-1344 15 1345 0
1344 -15 1345 0
1344 15 -1345 0
-1345 -16 -1346 0
-1345 16 1346 0
1345 -16 1346 0
1345 16 -1346 0
-1346 -20 -1347 0
-1346 20 1347 0
1346 -20 1347 0
1346 20 -1347 0
-1347 -32 -1348 0
-1347 32 1348 0
1347 -32 1348 0
1347 32 -1348 0
-1348 -33 -1349 0
-1348 33 1349 0
1348 -33 1349 0
1348 33 -1349 0
-1349 -34 -1350 0
-1349 34 1350 0
1349 -34 1350 0
1349 34 -1350 0
-1350 -35 -1351 0
-1350 35 1351 0
1350 -35 1351 0
1350 35 -1351 0
-1351 -36 -1352 0
-1351 36 1352 0
1351 -36 1352 0
1351 36 -1352 0
-1352 -40 -1353 0
-1352 40 1353 0
1352 -40 1353 0
1352 40 -1353 0
1342 1353 0
-2 -3 -1354 0
-2 3 1354 0
2 -3 1354 0
2 3 -1354 0
-1354 -7 -1355 0
-1354 7 1355 0
1354 -7 1355 0
1354 7 -1355 0
-1355 -10 -1356 0
-1355 10 1356 0
1355 -10 1356 0
1355 10 -1356 0
-1356 -22 -1357 0
-1356 22 1357 0
1356 -22 1357 0
1356 22 -1357 0
-1357 -23 -1358 0
-1357 23 1358 0
1357 -23 1358 0
1357 23 -1358 0
-1358 -27 -1359 0
-1358 27 1359 0
1358 -27 1359 0
1358 27 -1359 0
-1359 -30 -1360 0
-1359 30 1360 0
1359 -30 1360 0
1359 30 -1360 0
-2 -3 -1361 0
-2 3 1361 0
2 -3 1361 0
2 3 -1361 0
-1361 -7 -1362 0
-1361 7 1362 0
1361 -7 1362 0
1361 7 -1362 0
-1362 -10 -1363 0
-1362 10 1363 0
1362 -10 1363 0
1362 10 -1363 0
-1363 -32 -1364 0
-1363 32 1364 0
1363 -32 1364 0
1363 32 -1364 0
-1364 -33 -1365 0
-1364 33 1365 0
1364 -33 1365 0
1364 33 -1365 0
-1365 -37 -1366 0
-1365 37 1366 0
1365 -37 1366 0
1365 37 -1366 0
-1366 -40 -1367 0
-1366 40 1367 0
1366 -40 1367 0
1366 40 -1367 0
1360 1367 0
-1 -3 -1368 0
-1 3 1368 0
1 -3 1368 0
1 3 -1368 0
-1368 -4 -1369 0
-1368 4 1369 0
1368 -4 1369 0
1368 4 -1369 0
-1369 -6 -1370 0
-1369 6 1370 0
1369 -6 1370 0
1369 6 -1370 0
-1370 -7 -1371 0
-1370 7 1371 0
1370 -7 1371 0
1370 7 -1371 0
-1371 -10 -1372 0
-1371 10 1372 0
1371 -10 1372 0
1371 10 -1372 0
-1372 -11 -1373 0
-1372 11 1373 0
1372 -11 1373 0
1372 11 -1373 0
-1373 -13 -1374 0
-1373 13 1374 0
1373 -13 1374 0
1373 13 -1374 0
-1374 -14 -1375 0
-1374 14 1375 0
1374 -14 1375 0
1374 14 -1375 0
-1375 -16 -1376 0
-1375 16 1376 0
1375 -16 1376 0
1375 16 -1376 0
-1376 -17 -1377 0
-1376 17 1377 0
1376 -17 1377 0
1376 17 -1377 0
-1377 -20 -1378 0
-1377 20 1378 0
1377 -20 1378 0
1377 20 -1378 0
-1378 -21 -1379 0
-1378 21 1379 0
1378 -21 1379 0
1378 21 -1379 0
-1379 -23 -1380 0
-1379 23 1380 0
1379 -23 1380 0
1379 23 -1380 0
-1380 -24 -1381 0
-1380 24 1381 0
1380 -24 1381 0
1380 24 -1381 0
-1381 -26 -1382 0
-1381 26 1382 0
1381 -26 1382 0
1381 26 -1382 0
-1382 -27 -1383 0
-1382 27 1383 0
1382 -27 1383 0
1382 27 -1383 0
-1383 -30 -1384 0
-1383 30 1384 0
1383 -30 1384 0
1383 30 -1384 0
-1 -3 -1385 0
-1 3 1385 0
1 -3 1385 0
1 3 -1385 0
-1385 -4 -1386 0
-1385 4 1386 0
1385 -4 1386 0
1385 4 -1386 0
-1386 -6 -1387 0
-1386 6 1387 0
1386 -6 1387 0
1386 6 -1387 0
-1387 -7 -1388 0
-1387 7 1388 0
1387 -7 1388 0
1387 7 -1388 0
-1388 -10 -1389 0
-1388 10 1389 0
1388 -10 1389 0
1388 10 -1389 0
-1389 -11 -1390 0
-1389 11 1390 0
1389 -11 1390 0
1389 11 -1390 0
-1390 -13 -1391 0
-1390 13 1391 0
1390 -13 1391 0
1390 13 -1391 0
-1391 -14 -1392 0
-1391 14 1392 0
1391 -14 1392 0
1391 14 -1392 0
-1392 -16 -1393 0
-1392 16 1393 0
1392 -16 1393 0
1392 16 -1393 0
-1393 -17 -1394 0
-1393 17 1394 0
1393 -17 1394 0
1393 17 -1394 0
-1394 -20 -1395 0
-1394 20 1395 0
1394 -20 1395 0
1394 20 -1395 0
-1395 -31 -1396 0
-1395 31 1396 0
1395 -31 1396 0
1395 31 -1396 0
-1396 -33 -1397 0
-1396 33 1397 0
1396 -33 1397 0
1396 33 -1397 0
-1397 -34 -1398 0
-1397 34 1398 0
1397 -34 1398 0
1397 34 -1398 0
-1398 -36 -1399 0
-1398 36 1399 0
1398 -36 1399 0
1398 36 -1399 0
-1399 -37 -1400 0
-1399 37 1400 0
1399 -37 1400 0
1399 37 -1400 0
-1400 -40 -1401 0
-1400 40 1401 0
1400 -40 1401 0
1400 40 -1401 0
1384 1401 0
-22 -23 -1402 0
-22 23 1402 0
22 -23 1402 0
22 23 -1402 0
-1402 -25 -1403 0
-1402 25 1403 0
1402 -25 1403 0
1402 25 -1403 0
-1403 -28 -1404 0
-1403 28 1404 0
1403 -28 1404 0
1403 28 -1404 0
-1404 -30 -1405 0
-1404 30 1405 0
1404 -30 1405 0
1404 30 -1405 0
-12 -13 -1406 0
-12 13 1406 0
12 -13 1406 0
12 13 -1406 0
-1406 -15 -1407 0
-1406 15 1407 0
1406 -15 1407 0
1406 15 -1407 0
-1407 -18 -1408 0
-1407 18 1408 0
1407 -18 1408 0
1407 18 -1408 0
-1408 -20 -1409 0
-1408 20 1409 0
1408 -20 1409 0
1408 20 -1409 0
-1409 -32 -1410 0
-1409 32 1410 0
1409 -32 1410 0
1409 32 -1410 0
-1410 -33 -1411 0
-1410 33 1411 0
1410 -33 1411 0
1410 33 -1411 0
-1411 -35 -1412 0
-1411 35 1412 0
1411 -35 1412 0
1411 35 -1412 0
-1412 -38 -1413 0
-1412 38 1413 0
1412 -38 1413 0
1412 38 -1413 0
-1413 -40 -1414 0
-1413 40 1414 0
1413 -40 1414 0
1413 40 -1414 0
1405 1414 0
-1 -5 -1415 0
-1 5 1415 0
1 -5 1415 0
1 5 -1415 0
-1415 -6 -1416 0
-1415 6 1416 0
1415 -6 1416 0
1415 6 -1416 0
-1416 -8 -1417 0
-1416 8 1417 0
1416 -8 1417 0
1416 8 -1417 0
-1417 -10 -1418 0
-1417 10 1418 0
1417 -10 1418 0
1417 10 -1418 0
-1418 -11 -1419 0
-1418 11 1419 0
1418 -11 1419 0
1418 11 -1419 0
-1419 -15 -1420 0
-1419 15 1420 0
1419 -15 1420 0
1419 15 -1420 0
-1420 -16 -1421 0
-1420 16 1421 0
1420 -16 1421 0
1420 16 -1421 0
-1421 -18 -1422 0
-1421 18 1422 0
1421 -18 1422 0
1421 18 -1422 0
-1422 -20 -1423 0
-1422 20 1423 0
1422 -20 1423 0
1422 20 -1423 0
-1423 -21 -1424 0
-1423 21 1424 0
1423 -21 1424 0
1423 21 -1424 0
-1424 -25 -1425 0
-1424 25 1425 0
1424 -25 1425 0
1424 25 -1425 0
-1425 -26 -1426 0
-1425 26 1426 0
1425 -26 1426 0
1425 26 -1426 0
-1426 -28 -1427 0
-1426 28 1427 0
1426 -28 1427 0
1426 28 -1427 0
-1427 -30 -1428 0
-1427 30 1428 0
1427 -30 1428 0
1427 30 -1428 0
-11 -15 -1429 0
-11 15 1429 0
11 -15 1429 0
11 15 -1429 0
-1429 -16 -1430 0
-1429 16 1430 0
1429 -16 1430 0
1429 16 -1430 0
-1430 -18 -1431 0
-1430 18 1431 0
1430 -18 1431 0
1430 18 -1431 0
-1431 -20 -1432 0
-1431 20 1432 0
1431 -20 1432 0
1431 20 -1432 0
-1432 -31 -1433 0
-1432 31 1433 0
1432 -31 1433 0
1432 31 -1433 0
-1433 -35 -1434 0
-1433 35 1434 0
1433 -35 1434 0
1433 35 -1434 0
-1434 -36 -1435 0
-1434 36 1435 0
1434 -36 1435 0
1434 36 -1435 0
-1435 -38 -1436 0
-1435 38 1436 0
1435 -38 1436 0
1435 38 -1436 0
-1436 -40 -1437 0
-1436 40 1437 0
1436 -40 1437 0
1436 40 -1437 0
1428 1437 0
-1 -2 -1438 0
-1 2 1438 0
1 -2 1438 0
1 2 -1438 0
-1438 -3 -1439 0
-1438 3 1439 0
1438 -3 1439 0
1438 3 -1439 0
-1439 -5 -1440 0
-1439 5 1440 0
1439 -5 1440 0
1439 5 -1440 0
-1440 -7 -1441 0
-1440 7 1441 0
1440 -7 1441 0
1440 7 -1441 0
-1441 -8 -1442 0
-1441 8 1442 0
1441 -8 1442 0
1441 8 -1442 0
-1442 -10 -1443 0
-1442 10 1443 0
1442 -10 1443 0
1442 10 -1443 0
-1443 -11 -1444 0
-1443 11 1444 0
1443 -11 1444 0
1443 11 -1444 0
-1444 -12 -1445 0
-1444 12 1445 0
1444 -12 1445 0
1444 12 -1445 0
-1445 -13 -1446 0
-1445 13 1446 0
1445 -13 1446 0
1445 13 -1446 0
-1446 -15 -1447 0
-1446 15 1447 0
1446 -15 1447 0
1446 15 -1447 0
-1447 -17 -1448 0
-1447 17 1448 0
1447 -17 1448 0
1447 17 -1448 0
-1448 -18 -1449 0
-1448 18 1449 0
1448 -18 1449 0
1448 18 -1449 0
-1449 -20 -1450 0
-1449 20 1450 0
1449 -20 1450 0
1449 20 -1450 0
-1450 -21 -1451 0
-1450 21 1451 0
1450 -21 1451 0
1450 21 -1451 0
-1451 -22 -1452 0
-1451 22 1452 0
1451 -22 1452 0
1451 22 -1452 0
-1452 -23 -1453 0
-1452 23 1453 0
1452 -23 1453 0
1452 23 -1453 0
-1453 -25 -1454 0
-1453 25 1454 0
1453 -25 1454 0
1453 25 -1454 0
-1454 -27 -1455 0
-1454 27 1455 0
1454 -27 1455 0
1454 27 -1455 0
-1455 -28 -1456 0
-1455 28 1456 0
1455 -28 1456 0
1455 28 -1456 0
-1456 -30 -1457 0
-1456 30 1457 0
1456 -30 1457 0
1456 30 -1457 0
-11 -12 -1458 0
-11 12 1458 0
11 -12 1458 0
11 12 -1458 0
-1458 -13 -1459 0
-1458 13 1459 0
1458 -13 1459 0
1458 13 -1459 0
-1459 -15 -1460 0
-1459 15 1460 0
1459 -15 1460 0
1459 15 -1460 0
-1460 -17 -1461 0
-1460 17 1461 0
1460 -17 1461 0
1460 17 -1461 0
-1461 -18 -1462 0
-1461 18 1462 0
1461 -18 1462 0
1461 18 -1462 0
-1462 -20 -1463 0
-1462 20 1463 0
1462 -20 1463 0
1462 20 -1463 0
-1463 -31 -1464 0
-1463 31 1464 0
1463 -31 1464 0
1463 31 -1464 0
-1464 -32 -1465 0
-1464 32 1465 0
1464 -32 1465 0
1464 32 -1465 0
-1465 -33 -1466 0
-1465 33 1466 0
1465 -33 1466 0
1465 33 -1466 0
-1466 -35 -1467 0
-1466 35 1467 0
1466 -35 1467 0
1466 35 -1467 0
-1467 -37 -1468 0
-1467 37 1468 0
1467 -37 1468 0
1467 37 -1468 0
-1468 -38 -1469 0
-1468 38 1469 0
1468 -38 1469 0
1468 38 -1469 0
-1469 -40 -1470 0
-1469 40 1470 0
1469 -40 1470 0
1469 40 -1470 0
1457 1470 0
-21 -23 -1471 0
-21 23 1471 0
21 -23 1471 0
21 23 -1471 0
-1471 -26 -1472 0
-1471 26 1472 0
1471 -26 1472 0
1471 26 -1472 0
-1472 -27 -1473 0
-1472 27 1473 0
1472 -27 1473 0
1472 27 -1473 0
-1473 -28 -1474 0
-1473 28 1474 0
1473 -28 1474 0
1473 28 -1474 0
-1474 -30 -1475 0
-1474 30 1475 0
1474 -30 1475 0
1474 30 -1475 0
-11 -13 -1476 0
-11 13 1476 0
11 -13 1476 0
11 13 -1476 0
-1476 -16 -1477 0
-1476 16 1477 0
1476 -16 1477 0
1476 16 -1477 0
-1477 -17 -1478 0
-1477 17 1478 0
1477 -17 1478 0
1477 17 -1478 0
-1478 -18 -1479 0
-1478 18 1479 0
1478 -18 1479 0
1478 18 -1479 0
-1479 -20 -1480 0
-1479 20 1480 0
1479 -20 1480 0
1479 20 -1480 0
-1480 -31 -1481 0
-1480 31 1481 0
1480 -31 1481 0
1480 31 -1481 0
-1481 -33 -1482 0
-1481 33 1482 0
1481 -33 1482 0
1481 33 -1482 0
-1482 -36 -1483 0
-1482 36 1483 0
1482 -36 1483 0
1482 36 -1483 0
-1483 -37 -1484 0
-1483 37 1484 0
1483 -37 1484 0
1483 37 -1484 0
-1484 -38 -1485 0
-1484 38 1485 0
1484 -38 1485 0
1484 38 -1485 0
-1485 -40 -1486 0
-1485 40 1486 0
1485 -40 1486 0
1485 40 -1486 0
1475 1486 0
-1 -2 -1487 0
-1 2 1487 0
1 -2 1487 0
1 2 -1487 0
-1487 -3 -1488 0
-1487 3 1488 0
1487 -3 1488 0
1487 3 -1488 0
-1488 -9 -1489 0
-1488 9 1489 0
1488 -9 1489 0
1488 9 -1489 0
-1489 -10 -1490 0
-1489 10 1490 0
1489 -10 1490 0
1489 10 -1490 0
-1490 -11 -1491 0
-1490 11 1491 0
1490 -11 1491 0
1490 11 -1491 0
-1491 -12 -1492 0
-1491 12 1492 0
1491 -12 1492 0
1491 12 -1492 0
-1492 -13 -1493 0
-1492 13 1493 0
1492 -13 1493 0
1492 13 -1493 0
-1493 -19 -1494 0
-1493 19 1494 0
1493 -19 1494 0
1493 19 -1494 0
-1494 -20 -1495 0
-1494 20 1495 0
1494 -20 1495 0
1494 20 -1495 0
-1495 -21 -1496 0
-1495 21 1496 0
1495 -21 1496 0
1495 21 -1496 0
-1496 -22 -1497 0
-1496 22 1497 0
1496 -22 1497 0
1496 22 -1497 0
-1497 -23 -1498 0
-1497 23 1498 0
1497 -23 1498 0
1497 23 -1498 0
-1498 -29 -1499 0
-1498 29 1499 0
1498 -29 1499 0
1498 29 -1499 0
-1499 -30 -1500 0
-1499 30 1500 0
1499 -30 1500 0
1499 30 -1500 0
-1 -2 -1501 0
-1 2 1501 0
1 -2 1501 0
1 2 -1501 0
-1501 -3 -1502 0
-1501 3 1502 0
1501 -3 1502 0
1501 3 -1502 0
-1502 -9 -1503 0
-1502 9 1503 0
1502 -9 1503 0
1502 9 -1503 0
-1503 -10 -1504 0
-1503 10 1504 0
1503 -10 1504 0
1503 10 -1504 0
-1504 -11 -1505 0
-1504 11 1505 0
1504 -11 1505 0
1504 11 -1505 0
-1505 -12 -1506 0
-1505 12 1506 0
1505 -12 1506 0
1505 12 -1506 0
-1506 -13 -1507 0
-1506 13 1507 0
1506 -13 1507 0
1506 13 -1507 0
-1507 -19 -1508 0
-1507 19 1508 0
1507 -19 1508 0
1507 19 -1508 0
-1508 -20 -1509 0
-1508 20 1509 0
1508 -20 1509 0
1508 20 -1509 0
-1509 -31 -1510 0
-1509 31 1510 0
1509 -31 1510 0
1509 31 -1510 0
-1510 -32 -1511 0
-1510 32 1511 0
1510 -32 1511 0
1510 32 -1511 0
-1511 -33 -1512 0
-1511 33 1512 0
1511 -33 1512 0
1511 33 -1512 0
-1512 -39 -1513 0
-1512 39 1513 0
1512 -39 1513 0
1512 39 -1513 0
-1513 -40 -1514 0
-1513 40 1514 0
1513 -40 1514 0
1513 40 -1514 0
1500 1514 0
-1 -4 -1515 0
-1 4 1515 0
1 -4 1515 0
1 4 -1515 0
-1515 -6 -1516 0
-1515 6 1516 0
1515 -6 1516 0
1515 6 -1516 0
-1516 -9 -1517 0
-1516 9 1517 0
1516 -9 1517 0
1516 9 -1517 0
-1517 -10 -1518 0
-1517 10 1518 0
1517 -10 1518 0
1517 10 -1518 0
-1518 -21 -1519 0
-1518 21 1519 0
1518 -21 1519 0
1518 21 -1519 0
-1519 -24 -1520 0
-1519 24 1520 0
1519 -24 1520 0
1519 24 -1520 0
-1520 -26 -1521 0
-1520 26 1521 0
1520 -26 1521 0
1520 26 -1521 0
-1521 -29 -1522 0
-1521 29 1522 0
1521 -29 1522 0
1521 29 -1522 0
-1522 -30 -1523 0
-1522 30 1523 0
1522 -30 1523 0
1522 30 -1523 0
-1 -4 -1524 0
-1 4 1524 0
1 -4 1524 0
1 4 -1524 0
-1524 -6 -1525 0
-1524 6 1525 0
1524 -6 1525 0
1524 6 -1525 0
-1525 -9 -1526 0
-1525 9 1526 0
1525 -9 1526 0
1525 9 -1526 0
-1526 -10 -1527 0
-1526 10 1527 0
1526 -10 1527 0
1526 10 -1527 0
-1527 -31 -1528 0
-1527 31 1528 0
1527 -31 1528 0
1527 31 -1528 0
-1528 -34 -1529 0
-1528 34 1529 0
1528 -34 1529 0
1528 34 -1529 0
-1529 -36 -1530 0
-1529 36 1530 0
1529 -36 1530 0
1529 36 -1530 0
-1530 -39 -1531 0
-1530 39 1531 0
1530 -39 1531 0
1530 39 -1531 0
-1531 -40 -1532 0
-1531 40 1532 0
1531 -40 1532 0
1531 40 -1532 0
1523 1532 0
-22 -27 -1533 0
-22 27 1533 0
22 -27 1533 0
22 27 -1533 0
-1533 -29 -1534 0
-1533 29 1534 0
1533 -29 1534 0
1533 29 -1534 0
-1534 -30 -1535 0
-1534 30 1535 0
1534 -30 1535 0
1534 30 -1535 0
-2 -7 -1536 0
-2 7 1536 0
2 -7 1536 0
2 7 -1536 0
-1536 -9 -1537 0
-1536 9 1537 0
1536 -9 1537 0
1536 9 -1537 0
-1537 -10 -1538 0
-1537 10 1538 0
1537 -10 1538 0
1537 10 -1538 0
-1538 -12 -1539 0
-1538 12 1539 0
1538 -12 1539 0
1538 12 -1539 0
-1539 -17 -1540 0
-1539 17 1540 0
1539 -17 1540 0
1539 17 -1540 0
-1540 -19 -1541 0
-1540 19 1541 0
1540 -19 1541 0
1540 19 -1541 0
-1541 -20 -1542 0
-1541 20 1542 0
1541 -20 1542 0
1541 20 -1542 0
-1542 -32 -1543 0
-1542 32 1543 0
1542 -32 1543 0
1542 32 -1543 0
-1543 -37 -1544 0
-1543 37 1544 0
1543 -37 1544 0
1543 37 -1544 0
-1544 -39 -1545 0
-1544 39 1545 0
1544 -39 1545 0
1544 39 -1545 0
-1545 -40 -1546 0
-1545 40 1546 0
1545 -40 1546 0
1545 40 -1546 0
1535 1546 0
-11 -14 -1547 0
-11 14 1547 0
11 -14 1547 0
11 14 -1547 0
-1547 -15 -1548 0
-1547 15 1548 0
1547 -15 1548 0
1547 15 -1548 0
-1548 -17 -1549 0
-1548 17 1549 0
1548 -17 1549 0
1548 17 -1549 0
-1549 -19 -1550 0
-1549 19 1550 0
1549 -19 1550 0
1549 19 -1550 0
-1550 -20 -1551 0
-1550 20 1551 0
1550 -20 1551 0
1550 20 -1551 0
-1551 -21 -1552 0
-1551 21 1552 0
1551 -21 1552 0
1551 21 -1552 0
-1552 -24 -1553 0
-1552 24 1553 0
1552 -24 1553 0
1552 24 -1553 0
-1553 -25 -1554 0
-1553 25 1554 0
1553 -25 1554 0
1553 25 -1554 0
-1554 -27 -1555 0
-1554 27 1555 0
1554 -27 1555 0
1554 27 -1555 0
-1555 -29 -1556 0
-1555 29 1556 0
1555 -29 1556 0
1555 29 -1556 0
-1556 -30 -1557 0
-1556 30 1557 0
1556 -30 1557 0
1556 30 -1557 0
-1 -4 -1558 0
-1 4 1558 0
1 -4 1558 0
1 4 -1558 0
-1558 -5 -1559 0
-1558 5 1559 0
1558 -5 1559 0
1558 5 -1559 0
-1559 -7 -1560 0
-1559 7 1560 0
1559 -7 1560 0
1559 7 -1560 0
-1560 -9 -1561 0
-1560 9 1561 0
1560 -9 1561 0
1560 9 -1561 0
-1561 -10 -1562 0
-1561 10 1562 0
1561 -10 1562 0
1561 10 -1562 0
-1562 -31 -1563 0
-1562 31 1563 0
1562 -31 1563 0
1562 31 -1563 0
-1563 -34 -1564 0
-1563 34 1564 0
1563 -34 1564 0
1563 34 -1564 0
-1564 -35 -1565 0
-1564 35 1565 0
1564 -35 1565 0
1564 35 -1565 0
-1565 -37 -1566 0
-1565 37 1566 0
1565 -37 1566 0
1565 37 -1566 0
-1566 -39 -1567 0
-1566 39 1567 0
1566 -39 1567 0
1566 39 -1567 0
-1567 -40 -1568 0
-1567 40 1568 0
1567 -40 1568 0
1567 40 -1568 0
1557 1568 0
-1 -2 -1569 0
-1 2 1569 0
1 -2 1569 0
1 2 -1569 0
-1569 -4 -1570 0
-1569 4 1570 0
1569 -4 1570 0
1569 4 -1570 0
-1570 -5 -1571 0
-1570 5 1571 0
1570 -5 1571 0
1570 5 -1571 0
-1571 -7 -1572 0
-1571 7 1572 0
1571 -7 1572 0
1571 7 -1572 0
-1572 -9 -1573 0
-1572 9 1573 0
1572 -9 1573 0
1572 9 -1573 0
-1573 -10 -1574 0
-1573 10 1574 0
1573 -10 1574 0
1573 10 -1574 0
-1574 -21 -1575 0
-1574 21 1575 0
1574 -21 1575 0
1574 21 -1575 0
-1575 -22 -1576 0
-1575 22 1576 0
1575 -22 1576 0
1575 22 -1576 0
-1576 -24 -1577 0
-1576 24 1577 0
1576 -24 1577 0
1576 24 -1577 0
-1577 -25 -1578 0
-1577 25 1578 0
1577 -25 1578 0
1577 25 -1578 0
-1578 -27 -1579 0
-1578 27 1579 0
1578 -27 1579 0
1578 27 -1579 0
-1579 -29 -1580 0
-1579 29 1580 0
1579 -29 1580 0
1579 29 -1580 0
-1580 -30 -1581 0
-1580 30 1581 0
1580 -30 1581 0
1580 30 -1581 0
-1 -2 -1582 0
-1 2 1582 0
1 -2 1582 0
1 2 -1582 0
-1582 -4 -1583 0
-1582 4 1583 0
1582 -4 1583 0
1582 4 -1583 0
-1583 -5 -1584 0
-1583 5 1584 0
1583 -5 1584 0
1583 5 -1584 0
-1584 -7 -1585 0
-1584 7 1585 0
1584 -7 1585 0
1584 7 -1585 0
-1585 -9 -1586 0
-1585 9 1586 0
1585 -9 1586 0
1585 9 -1586 0
-1586 -10 -1587 0
-1586 10 1587 0
1586 -10 1587 0
1586 10 -1587 0
-1587 -11 -1588 0
-1587 11 1588 0
1587 -11 1588 0
1587 11 -1588 0
-1588 -12 -1589 0
-1588 12 1589 0
1588 -12 1589 0
1588 12 -1589 0
-1589 -14 -1590 0
-1589 14 1590 0
1589 -14 1590 0
1589 14 -1590 0
-1590 -15 -1591 0
-1590 15 1591 0
1590 -15 1591 0
1590 15 -1591 0
-1591 -17 -1592 0
-1591 17 1592 0
1591 -17 1592 0
1591 17 -1592 0
-1592 -19 -1593 0
-1592 19 1593 0
1592 -19 1593 0
1592 19 -1593 0
-1593 -20 -1594 0
-1593 20 1594 0
1593 -20 1594 0
1593 20 -1594 0
-1594 -31 -1595 0
-1594 31 1595 0
1594 -31 1595 0
1594 31 -1595 0
-1595 -32 -1596 0
-1595 32 1596 0
1595 -32 1596 0
1595 32 -1596 0
-1596 -34 -1597 0
-1596 34 1597 0
1596 -34 1597 0
1596 34 -1597 0
-1597 -35 -1598 0
-1597 35 1598 0
1597 -35 1598 0
1597 35 -1598 0
-1598 -37 -1599 0
-1598 37 1599 0
1598 -37 1599 0
1598 37 -1599 0
-1599 -39 -1600 0
-1599 39 1600 0
1599 -39 1600 0
1599 39 -1600 0
-1600 -40 -1601 0
-1600 40 1601 0
1600 -40 1601 0
1600 40 -1601 0
1581 1601 0
-21 -22 -1602 0
-21 22 1602 0
21 -22 1602 0
21 22 -1602 0
-1602 -24 -1603 0
-1602 24 1603 0
1602 -24 1603 0
1602 24 -1603 0
-1603 -25 -1604 0
-1603 25 1604 0
1603 -25 1604 0
1603 25 -1604 0
-1604 -26 -1605 0
-1604 26 1605 0
1604 -26 1605 0
1604 26 -1605 0
-1605 -27 -1606 0
-1605 27 1606 0
1605 -27 1606 0
1605 27 -1606 0
-1606 -29 -1607 0
-1606 29 1607 0
1606 -29 1607 0
1606 29 -1607 0
-1607 -30 -1608 0
-1607 30 1608 0
1607 -30 1608 0
1607 30 -1608 0
-31 -32 -1609 0
-31 32 1609 0
31 -32 1609 0
31 32 -1609 0
-1609 -34 -1610 0
-1609 34 1610 0
1609 -34 1610 0
1609 34 -1610 0
-1610 -35 -1611 0
-1610 35 1611 0
1610 -35 1611 0
1610 35 -1611 0
-1611 -36 -1612 0
-1611 36 1612 0
1611 -36 1612 0
1611 36 -1612 0
-1612 -37 -1613 0
-1612 37 1613 0
1612 -37 1613 0
1612 37 -1613 0
-1613 -39 -1614 0
-1613 39 1614 0
1613 -39 1614 0
1613 39 -1614 0
-1614 -40 -1615 0
-1614 40 1615 0
1614 -40 1615 0
1614 40 -1615 0
1608 1615 0
-2 -8 -1616 0
-2 8 1616 0
2 -8 1616 0
2 8 -1616 0
-1616 -9 -1617 0
-1616 9 1617 0
1616 -9 1617 0
1616 9 -1617 0
-1617 -10 -1618 0
-1617 10 1618 0
1617 -10 1618 0
1617 10 -1618 0
-1618 -22 -1619 0
-1618 22 1619 0
1618 -22 1619 0
1618 22 -1619 0
-1619 -28 -1620 0
-1619 28 1620 0
1619 -28 1620 0
1619 28 -1620 0
-1620 -29 -1621 0
-1620 29 1621 0
1620 -29 1621 0
1620 29 -1621 0
-1621 -30 -1622 0
-1621 30 1622 0
1621 -30 1622 0
1621 30 -1622 0
-32 -38 -1623 0
-32 38 1623 0
32 -38 1623 0
32 38 -1623 0
-1623 -39 -1624 0
-1623 39 1624 0
1623 -39 1624 0
1623 39 -1624 0
-1624 -40 -1625 0
-1624 40 1625 0
1624 -40 1625 0
1624 40 -1625 0
1622 1625 0
-11 -14 -1626 0
-11 14 1626 0
11 -14 1626 0
11 14 -1626 0
-1626 -18 -1627 0
-1626 18 1627 0
1626 -18 1627 0
1626 18 -1627 0
-1627 -19 -1628 0
-1627 19 1628 0
1627 -19 1628 0
1627 19 -1628 0
-1628 -20 -1629 0
-1628 20 1629 0
1628 -20 1629 0
1628 20 -1629 0
-1629 -21 -1630 0
-1629 21 1630 0
1629 -21 1630 0
1629 21 -1630 0
-1630 -24 -1631 0
-1630 24 1631 0
1630 -24 1631 0
1630 24 -1631 0
-1631 -28 -1632 0
-1631 28 1632 0
1631 -28 1632 0
1631 28 -1632 0
-1632 -29 -1633 0
-1632 29 1633 0
1632 -29 1633 0
1632 29 -1633 0
-1633 -30 -1634 0
-1633 30 1634 0
1633 -30 1634 0
1633 30 -1634 0
-31 -34 -1635 0
-31 34 1635 0
31 -34 1635 0
31 34 -1635 0
-1635 -38 -1636 0
-1635 38 1636 0
1635 -38 1636 0
1635 38 -1636 0
-1636 -39 -1637 0
-1636 39 1637 0
1636 -39 1637 0
1636 39 -1637 0
-1637 -40 -1638 0
-1637 40 1638 0
1637 -40 1638 0
1637 40 -1638 0
1634 1638 0
-21 -22 -1639 0
-21 22 1639 0
21 -22 1639 0
21 22 -1639 0
-1639 -24 -1640 0
-1639 24 1640 0
1639 -24 1640 0
1639 24 -1640 0
-1640 -28 -1641 0
-1640 28 1641 0
1640 -28 1641 0
1640 28 -1641 0
-1641 -29 -1642 0
-1641 29 1642 0
1641 -29 1642 0
1641 29 -1642 0
-1642 -30 -1643 0
-1642 30 1643 0
1642 -30 1643 0
1642 30 -1643 0
-1 -2 -1644 0
-1 2 1644 0
1 -2 1644 0
1 2 -1644 0
-1644 -4 -1645 0
-1644 4 1645 0
1644 -4 1645 0
1644 4 -1645 0
-1645 -8 -1646 0
-1645 8 1646 0
1645 -8 1646 0
1645 8 -1646 0
-1646 -9 -1647 0
-1646 9 1647 0
1646 -9 1647 0
1646 9 -1647 0
-1647 -10 -1648 0
-1647 10 1648 0
1647 -10 1648 0
1647 10 -1648 0
-1648 -31 -1649 0
-1648 31 1649 0
1648 -31 1649 0
1648 31 -1649 0
-1649 -32 -1650 0
-1649 32 1650 0
1649 -32 1650 0
1649 32 -1650 0
-1650 -34 -1651 0
-1650 34 1651 0
1650 -34 1651 0
1650 34 -1651 0
-1651 -38 -1652 0
-1651 38 1652 0
1651 -38 1652 0
1651 38 -1652 0
-1652 -39 -1653 0
-1652 39 1653 0
1652 -39 1653 0
1652 39 -1653 0
-1653 -40 -1654 0
-1653 40 1654 0
1653 -40 1654 0
1653 40 -1654 0
1643 1654 0
-1 -2 -1655 0
-1 2 1655 0
1 -2 1655 0
1 2 -1655 0
-1655 -3 -1656 0
-1655 3 1656 0
1655 -3 1656 0
1655 3 -1656 0
-1656 -5 -1657 0
-1656 5 1657 0
1656 -5 1657 0
1656 5 -1657 0
-1657 -6 -1658 0
-1657 6 1658 0
1657 -6 1658 0
1657 6 -1658 0
-1658 -8 -1659 0
-1658 8 1659 0
1658 -8 1659 0
1658 8 -1659 0
-1659 -9 -1660 0
-1659 9 1660 0
1659 -9 1660 0
1659 9 -1660 0
-1660 -10 -1661 0
-1660 10 1661 0
1660 -10 1661 0
1660 10 -1661 0
-1661 -21 -1662 0
-1661 21 1662 0
1661 -21 1662 0
1661 21 -1662 0
-1662 -22 -1663 0
-1662 22 1663 0
1662 -22 1663 0
1662 22 -1663 0
-1663 -23 -1664 0
-1663 23 1664 0
1663 -23 1664 0
1663 23 -1664 0
-1664 -25 -1665 0
-1664 25 1665 0
1664 -25 1665 0
1664 25 -1665 0
-1665 -26 -1666 0
-1665 26 1666 0
1665 -26 1666 0
1665 26 -1666 0
-1666 -28 -1667 0
-1666 28 1667 0
1666 -28 1667 0
1666 28 -1667 0
-1667 -29 -1668 0
-1667 29 1668 0
1667 -29 1668 0
1667 29 -1668 0
-1668 -30 -1669 0
-1668 30 1669 0
1668 -30 1669 0
1668 30 -1669 0
-11 -12 -1670 0
-11 12 1670 0
11 -12 1670 0
11 12 -1670 0
-1670 -13 -1671 0
-1670 13 1671 0
1670 -13 1671 0
1670 13 -1671 0
-1671 -15 -1672 0
-1671 15 1672 0
1671 -15 1672 0
1671 15 -1672 0
-1672 -16 -1673 0
-1672 16 1673 0
1672 -16 1673 0
1672 16 -1673 0
-1673 -18 -1674 0
-1673 18 1674 0
1673 -18 1674 0
1673 18 -1674 0
-1674 -19 -1675 0
-1674 19 1675 0
1674 -19 1675 0
1674 19 -1675 0
-1675 -20 -1676 0
-1675 20 1676 0
1675 -20 1676 0
1675 20 -1676 0
-1676 -31 -1677 0
-1676 31 1677 0
1676 -31 1677 0
1676 31 -1677 0
-1677 -32 -1678 0
-1677 32 1678 0
1677 -32 1678 0
1677 32 -1678 0
-1678 -33 -1679 0
-1678 33 1679 0
1678 -33 1679 0
1678 33 -1679 0
-1679 -35 -1680 0
-1679 35 1680 0
1679 -35 1680 0
1679 35 -1680 0
-1680 -36 -1681 0
-1680 36 1681 0
1680 -36 1681 0
1680 36 -1681 0
-1681 -38 -1682 0
-1681 38 1682 0
1681 -38 1682 0
1681 38 -1682 0
-1682 -39 -1683 0
-1682 39 1683 0
1682 -39 1683 0
1682 39 -1683 0
-1683 -40 -1684 0
-1683 40 1684 0
1683 -40 1684 0
1683 40 -1684 0
1669 1684 0
-21 -27 -1685 0
-21 27 1685 0
21 -27 1685 0
21 27 -1685 0
-1685 -28 -1686 0
-1685 28 1686 0
1685 -28 1686 0
1685 28 -1686 0
-1686 -29 -1687 0
-1686 29 1687 0
1686 -29 1687 0
1686 29 -1687 0
-1687 -30 -1688 0
-1687 30 1688 0
1687 -30 1688 0
1687 30 -1688 0
-1 -7 -1689 0
-1 7 1689 0
1 -7 1689 0
1 7 -1689 0
-1689 -8 -1690 0
-1689 8 1690 0
1689 -8 1690 0
1689 8 -1690 0
-1690 -9 -1691 0
-1690 9 1691 0
1690 -9 1691 0
1690 9 -1691 0
-1691 -10 -1692 0
-1691 10 1692 0
1691 -10 1692 0
1691 10 -1692 0
-1692 -11 -1693 0
-1692 11 1693 0
1692 -11 1693 0
1692 11 -1693 0
-1693 -17 -1694 0
-1693 17 1694 0
1693 -17 1694 0
1693 17 -1694 0
-1694 -18 -1695 0
-1694 18 1695 0
1694 -18 1695 0
1694 18 -1695 0
-1695 -19 -1696 0
-1695 19 1696 0
1695 -19 1696 0
1695 19 -1696 0
-1696 -20 -1697 0
-1696 20 1697 0
1696 -20 1697 0
1696 20 -1697 0
-1697 -31 -1698 0
-1697 31 1698 0
1697 -31 1698 0
1697 31 -1698 0
-1698 -37 -1699 0
-1698 37 1699 0
1698 -37 1699 0
1698 37 -1699 0
-1699 -38 -1700 0
-1699 38 1700 0
1699 -38 1700 0
1699 38 -1700 0
-1700 -39 -1701 0
-1700 39 1701 0
1700 -39 1701 0
1700 39 -1701 0
-1701 -40 -1702 0
-1701 40 1702 0
1701 -40 1702 0
1701 40 -1702 0
1688 1702 0
-22 -26 -1703 0
-22 26 1703 0
22 -26 1703 0
22 26 -1703 0
-1703 -27 -1704 0
-1703 27 1704 0
1703 -27 1704 0
1703 27 -1704 0
-1704 -28 -1705 0
-1704 28 1705 0
1704 -28 1705 0
1704 28 -1705 0
-1705 -29 -1706 0
-1705 29 1706 0
1705 -29 1706 0
1705 29 -1706 0
-1706 -30 -1707 0
-1706 30 1707 0
1706 -30 1707 0
1706 30 -1707 0
-32 -36 -1708 0
-32 36 1708 0
32 -36 1708 0
32 36 -1708 0
-1708 -37 -1709 0
-1708 37 1709 0
1708 -37 1709 0
1708 37 -1709 0
-1709 -38 -1710 0
-1709 38 1710 0
1709 -38 1710 0
1709 38 -1710 0
-1710 -39 -1711 0
-1710 39 1711 0
1710 -39 1711 0
1710 39 -1711 0
-1711 -40 -1712 0
-1711 40 1712 0
1711 -40 1712 0
1711 40 -1712 0
1707 1712 0
-2 -4 -1713 0
-2 4 1713 0
2 -4 1713 0
2 4 -1713 0
-1713 -5 -1714 0
-1713 5 1714 0
1713 -5 1714 0
1713 5 -1714 0
-1714 -6 -1715 0
-1714 6 1715 0
1714 -6 1715 0
1714 6 -1715 0
-1715 -7 -1716 0
-1715 7 1716 0
1715 -7 1716 0
1715 7 -1716 0
-1716 -8 -1717 0
-1716 8 1717 0
1716 -8 1717 0
1716 8 -1717 0
-1717 -9 -1718 0
-1717 9 1718 0
1717 -9 1718 0
1717 9 -1718 0
-1718 -10 -1719 0
-1718 10 1719 0
1718 -10 1719 0
1718 10 -1719 0
-1719 -22 -1720 0
-1719 22 1720 0
1719 -22 1720 0
1719 22 -1720 0
-1720 -24 -1721 0
-1720 24 1721 0
1720 -24 1721 0
1720 24 -1721 0
-1721 -25 -1722 0
-1721 25 1722 0
1721 -25 1722 0
1721 25 -1722 0
-1722 -26 -1723 0
-1722 26 1723 0
1722 -26 1723 0
1722 26 -1723 0
-1723 -27 -1724 0
-1723 27 1724 0
1723 -27 1724 0
1723 27 -1724 0
-1724 -28 -1725 0
-1724 28 1725 0
1724 -28 1725 0
1724 28 -1725 0
-1725 -29 -1726 0
-1725 29 1726 0
1725 -29 1726 0
1725 29 -1726 0
-1726 -30 -1727 0
-1726 30 1727 0
1726 -30 1727 0
1726 30 -1727 0
-2 -4 -1728 0
-2 4 1728 0
2 -4 1728 0
2 4 -1728 0
-1728 -5 -1729 0
-1728 5 1729 0
1728 -5 1729 0
1728 5 -1729 0
-1729 -6 -1730 0
-1729 6 1730 0
1729 -6 1730 0
1729 6 -1730 0
-1730 -7 -1731 0
-1730 7 1731 0
1730 -7 1731 0
1730 7 -1731 0
-1731 -8 -1732 0
-1731 8 1732 0
1731 -8 1732 0
1731 8 -1732 0
-1732 -9 -1733 0
-1732 9 1733 0
1732 -9 1733 0
1732 9 -1733 0
-1733 -10 -1734 0
-1733 10 1734 0
1733 -10 1734 0
1733 10 -1734 0
-1734 -12 -1735 0
-1734 12 1735 0
1734 -12 1735 0
1734 12 -1735 0
-1735 -14 -1736 0
-1735 14 1736 0
1735 -14 1736 0
1735 14 -1736 0
-1736 -15 -1737 0
-1736 15 1737 0
1736 -15 1737 0
1736 15 -1737 0
-1737 -16 -1738 0
-1737 16 1738 0
1737 -16 1738 0
1737 16 -1738 0
-1738 -17 -1739 0
-1738 17 1739 0
1738 -17 1739 0
1738 17 -1739 0
-1739 -18 -1740 0
-1739 18 1740 0
1739 -18 1740 0
1739 18 -1740 0
-1740 -19 -1741 0
-1740 19 1741 0
1740 -19 1741 0
1740 19 -1741 0
-1741 -20 -1742 0
-1741 20 1742 0
1741 -20 1742 0
1741 20 -1742 0
-1742 -32 -1743 0
-1742 32 1743 0
1742 -32 1743 0
1742 32 -1743 0
-1743 -34 -1744 0
-1743 34 1744 0
1743 -34 1744 0
1743 34 -1744 0
-1744 -35 -1745 0
-1744 35 1745 0
1744 -35 1745 0
1744 35 -1745 0
-1745 -36 -1746 0
-1745 36 1746 0
1745 -36 1746 0
1745 36 -1746 0
-1746 -37 -1747 0
-1746 37 1747 0
1746 -37 1747 0
1746 37 -1747 0
-1747 -38 -1748 0
-1747 38 1748 0
1747 -38 1748 0
1747 38 -1748 0
-1748 -39 -1749 0
-1748 39 1749 0
1748 -39 1749 0
1748 39 -1749 0
-1749 -40 -1750 0
-1749 40 1750 0
1749 -40 1750 0
1749 40 -1750 0
1727 1750 0
-11 -12 -1751 0
-11 12 1751 0
11 -12 1751 0
11 12 -1751 0
-1751 -14 -1752 0
-1751 14 1752 0
1751 -14 1752 0
1751 14 -1752 0
-1752 -15 -1753 0
-1752 15 1753 0
1752 -15 1753 0
1752 15 -1753 0
-1753 -16 -1754 0
-1753 16 1754 0
1753 -16 1754 0
1753 16 -1754 0
-1754 -17 -1755 0
-1754 17 1755 0
1754 -17 1755 0
1754 17 -1755 0
-1755 -18 -1756 0
-1755 18 1756 0
1755 -18 1756 0
1755 18 -1756 0
-1756 -19 -1757 0
-1756 19 1757 0
1756 -19 1757 0
1756 19 -1757 0
-1757 -20 -1758 0
-1757 20 1758 0
1757 -20 1758 0
1757 20 -1758 0
-1758 -21 -1759 0
-1758 21 1759 0
1758 -21 1759 0
1758 21 -1759 0
-1759 -22 -1760 0
-1759 22 1760 0
1759 -22 1760 0
1759 22 -1760 0
-1760 -24 -1761 0
-1760 24 1761 0
1760 -24 1761 0
1760 24 -1761 0
-1761 -25 -1762 0
-1761 25 1762 0
1761 -25 1762 0
1761 25 -1762 0
-1762 -26 -1763 0
-1762 26 1763 0
1762 -26 1763 0
1762 26 -1763 0
-1763 -27 -1764 0
-1763 27 1764 0
1763 -27 1764 0
1763 27 -1764 0
-1764 -28 -1765 0
-1764 28 1765 0
1764 -28 1765 0
1764 28 -1765 0
-1765 -29 -1766 0
-1765 29 1766 0
1765 -29 1766 0
1765 29 -1766 0
-1766 -30 -1767 0
-1766 30 1767 0
1766 -30 1767 0
1766 30 -1767 0
-1 -2 -1768 0
-1 2 1768 0
1 -2 1768 0
1 2 -1768 0
-1768 -4 -1769 0
-1768 4 1769 0
1768 -4 1769 0
1768 4 -1769 0
-1769 -5 -1770 0
-1769 5 1770 0
1769 -5 1770 0
1769 5 -1770 0
-1770 -6 -1771 0
-1770 6 1771 0
1770 -6 1771 0
1770 6 -1771 0
-1771 -7 -1772 0
-1771 7 1772 0
1771 -7 1772 0
1771 7 -1772 0
-1772 -8 -1773 0
-1772 8 1773 0
1772 -8 1773 0
1772 8 -1773 0
-1773 -9 -1774 0
-1773 9 1774 0
1773 -9 1774 0
1773 9 -1774 0
-1774 -10 -1775 0
-1774 10 1775 0
1774 -10 1775 0
1774 10 -1775 0
-1775 -31 -1776 0
-1775 31 1776 0
1775 -31 1776 0
1775 31 -1776 0
-1776 -32 -1777 0
-1776 32 1777 0
1776 -32 1777 0
1776 32 -1777 0
-1777 -34 -1778 0
-1777 34 1778 0
1777 -34 1778 0
1777 34 -1778 0
-1778 -35 -1779 0
-1778 35 1779 0
1778 -35 1779 0
1778 35 -1779 0
-1779 -36 -1780 0
-1779 36 1780 0
1779 -36 1780 0
1779 36 -1780 0
-1780 -37 -1781 0
-1780 37 1781 0
1780 -37 1781 0
1780 37 -1781 0
-1781 -38 -1782 0
-1781 38 1782 0
1781 -38 1782 0
1781 38 -1782 0
-1782 -39 -1783 0
-1782 39 1783 0
1782 -39 1783 0
1782 39 -1783 0
-1783 -40 -1784 0
-1783 40 1784 0
1783 -40 1784 0
1783 40 -1784 0
1767 1784 0
