p cnf                 1792                 7113
-1 -9 -41 0
-1 9 41 0
1 -9 41 0
1 9 -41 0
-11 -19 -42 0
-11 19 42 0
11 -19 42 0
11 19 -42 0
-42 -21 -43 0
-42 21 43 0
42 -21 43 0
42 21 -43 0
-43 -29 -44 0
-43 29 44 0
43 -29 44 0
43 29 -44 0
41 44 0
-2 -5 -45 0
-2 5 45 0
2 -5 45 0
2 5 -45 0
-45 -6 -46 0
-45 6 46 0
45 -6 46 0
45 6 -46 0
-46 -9 -47 0
-46 9 47 0
46 -9 47 0
46 9 -47 0
-12 -15 -48 0
-12 15 48 0
12 -15 48 0
12 15 -48 0
-48 -16 -49 0
-48 16 49 0
48 -16 49 0
48 16 -49 0
-49 -19 -50 0
-49 19 50 0
49 -19 50 0
49 19 -50 0
-50 -32 -51 0
-50 32 51 0
50 -32 51 0
50 32 -51 0
-51 -35 -52 0
-51 35 52 0
51 -35 52 0
51 35 -52 0
-52 -36 -53 0
-52 36 53 0
52 -36 53 0
52 36 -53 0
-53 -39 -54 0
-53 39 54 0
53 -39 54 0
53 39 -54 0
47 54 0
-3 -5 -55 0
-3 5 55 0
3 -5 55 0
3 5 -55 0
-55 -7 -56 0
-55 7 56 0
55 -7 56 0
55 7 -56 0
-56 -9 -57 0
-56 9 57 0
56 -9 57 0
56 9 -57 0
-33 -35 -58 0
-33 35 58 0
33 -35 58 0
33 35 -58 0
-58 -37 -59 0
-58 37 59 0
58 -37 59 0
58 37 -59 0
-59 -39 -60 0
-59 39 60 0
59 -39 60 0
59 39 -60 0
57 60 0
-1 -4 -61 0
-1 4 61 0
1 -4 61 0
1 4 -61 0
-61 -8 -62 0
-61 8 62 0
61 -8 62 0
61 8 -62 0
-62 -9 -63 0
-62 9 63 0
62 -9 63 0
62 9 -63 0
-21 -24 -64 0
-21 24 64 0
21 -24 64 0
21 24 -64 0
-64 -28 -65 0
-64 28 65 0
64 -28 65 0
64 28 -65 0
-65 -29 -66 0
-65 29 66 0
65 -29 66 0
65 29 -66 0
-66 -31 -67 0
-66 31 67 0
66 -31 67 0
66 31 -67 0
-67 -34 -68 0
-67 34 68 0
67 -34 68 0
67 34 -68 0
-68 -38 -69 0
-68 38 69 0
68 -38 69 0
68 38 -69 0
-69 -39 -70 0
-69 39 70 0
69 -39 70 0
69 39 -70 0
63 70 0
-1 -2 -71 0
-1 2 71 0
1 -2 71 0
1 2 -71 0
-71 -4 -72 0
-71 4 72 0
71 -4 72 0
71 4 -72 0
-72 -6 -73 0
-72 6 73 0
72 -6 73 0
72 6 -73 0
-73 -8 -74 0
-73 8 74 0
73 -8 74 0
73 8 -74 0
-74 -9 -75 0
-74 9 75 0
74 -9 75 0
74 9 -75 0
-11 -12 -76 0
-11 12 76 0
11 -12 76 0
11 12 -76 0
-76 -14 -77 0
-76 14 77 0
76 -14 77 0
76 14 -77 0
-77 -16 -78 0
-77 16 78 0
77 -16 78 0
77 16 -78 0
-78 -18 -79 0
-78 18 79 0
78 -18 79 0
78 18 -79 0
-79 -19 -80 0
-79 19 80 0
79 -19 80 0
79 19 -80 0
75 80 0
-2 -4 -81 0
-2 4 81 0
2 -4 81 0
2 4 -81 0
-81 -5 -82 0
-81 5 82 0
81 -5 82 0
81 5 -82 0
-82 -6 -83 0
-82 6 83 0
82 -6 83 0
82 6 -83 0
-83 -8 -84 0
-83 8 84 0
83 -8 84 0
83 8 -84 0
-84 -9 -85 0
-84 9 85 0
84 -9 85 0
84 9 -85 0
-22 -24 -86 0
-22 24 86 0
22 -24 86 0
22 24 -86 0
-86 -25 -87 0
-86 25 87 0
86 -25 87 0
86 25 -87 0
-87 -26 -88 0
-87 26 88 0
87 -26 88 0
87 26 -88 0
-88 -28 -89 0
-88 28 89 0
88 -28 89 0
88 28 -89 0
-89 -29 -90 0
-89 29 90 0
89 -29 90 0
89 29 -90 0
85 90 0
-2 -3 -91 0
-2 3 91 0
2 -3 91 0
2 3 -91 0
-91 -4 -92 0
-91 4 92 0
91 -4 92 0
91 4 -92 0
-92 -5 -93 0
-92 5 93 0
92 -5 93 0
92 5 -93 0
-93 -6 -94 0
-93 6 94 0
93 -6 94 0
93 6 -94 0
-94 -7 -95 0
-94 7 95 0
94 -7 95 0
94 7 -95 0
-95 -8 -96 0
-95 8 96 0
95 -8 96 0
95 8 -96 0
-96 -9 -97 0
-96 9 97 0
96 -9 97 0
96 9 -97 0
-12 -13 -98 0
-12 13 98 0
12 -13 98 0
12 13 -98 0
-98 -14 -99 0
-98 14 99 0
98 -14 99 0
98 14 -99 0
-99 -15 -100 0
-99 15 100 0
99 -15 100 0
99 15 -100 0
-100 -16 -101 0
-100 16 101 0
100 -16 101 0
100 16 -101 0
-101 -17 -102 0
-101 17 102 0
101 -17 102 0
101 17 -102 0
-102 -18 -103 0
-102 18 103 0
102 -18 103 0
102 18 -103 0
-103 -19 -104 0
-103 19 104 0
103 -19 104 0
103 19 -104 0
-104 -22 -105 0
-104 22 105 0
104 -22 105 0
104 22 -105 0
-105 -23 -106 0
-105 23 106 0
105 -23 106 0
105 23 -106 0
-106 -24 -107 0
-106 24 107 0
106 -24 107 0
106 24 -107 0
-107 -25 -108 0
-107 25 108 0
107 -25 108 0
107 25 -108 0
-108 -26 -109 0
-108 26 109 0
108 -26 109 0
108 26 -109 0
-109 -27 -110 0
-109 27 110 0
109 -27 110 0
109 27 -110 0
-110 -28 -111 0
-110 28 111 0
110 -28 111 0
110 28 -111 0
-111 -29 -112 0
-111 29 112 0
111 -29 112 0
111 29 -112 0
-112 -32 -113 0
-112 32 113 0
112 -32 113 0
112 32 -113 0
-113 -33 -114 0
-113 33 114 0
113 -33 114 0
113 33 -114 0
-114 -34 -115 0
-114 34 115 0
114 -34 115 0
114 34 -115 0
-115 -35 -116 0
-115 35 116 0
115 -35 116 0
115 35 -116 0
-116 -36 -117 0
-116 36 117 0
116 -36 117 0
116 36 -117 0
-117 -37 -118 0
-117 37 118 0
117 -37 118 0
117 37 -118 0
-118 -38 -119 0
-118 38 119 0
118 -38 119 0
118 38 -119 0
-119 -39 -120 0
-119 39 120 0
119 -39 120 0
119 39 -120 0
97 120 0
-2 -4 -121 0
-2 4 121 0
2 -4 121 0
2 4 -121 0
-121 -10 -122 0
-121 10 122 0
121 -10 122 0
121 10 -122 0
-12 -14 -123 0
-12 14 123 0
12 -14 123 0
12 14 -123 0
-123 -20 -124 0
-123 20 124 0
123 -20 124 0
123 20 -124 0
-124 -22 -125 0
-124 22 125 0
124 -22 125 0
124 22 -125 0
-125 -24 -126 0
-125 24 126 0
125 -24 126 0
125 24 -126 0
-126 -30 -127 0
-126 30 127 0
126 -30 127 0
126 30 -127 0
122 127 0
-1 -2 -128 0
-1 2 128 0
1 -2 128 0
1 2 -128 0
-128 -4 -129 0
-128 4 129 0
128 -4 129 0
128 4 -129 0
-129 -5 -130 0
-129 5 130 0
129 -5 130 0
129 5 -130 0
-130 -10 -131 0
-130 10 131 0
130 -10 131 0
130 10 -131 0
-21 -22 -132 0
-21 22 132 0
21 -22 132 0
21 22 -132 0
-132 -24 -133 0
-132 24 133 0
132 -24 133 0
132 24 -133 0
-133 -25 -134 0
-133 25 134 0
133 -25 134 0
133 25 -134 0
-134 -30 -135 0
-134 30 135 0
134 -30 135 0
134 30 -135 0
131 135 0
-4 -6 -136 0
-4 6 136 0
4 -6 136 0
4 6 -136 0
-136 -10 -137 0
-136 10 137 0
136 -10 137 0
136 10 -137 0
-14 -16 -138 0
-14 16 138 0
14 -16 138 0
14 16 -138 0
-138 -20 -139 0
-138 20 139 0
138 -20 139 0
138 20 -139 0
-139 -24 -140 0
-139 24 140 0
139 -24 140 0
139 24 -140 0
-140 -26 -141 0
-140 26 141 0
140 -26 141 0
140 26 -141 0
-141 -30 -142 0
-141 30 142 0
141 -30 142 0
141 30 -142 0
-142 -34 -143 0
-142 34 143 0
142 -34 143 0
142 34 -143 0
-143 -36 -144 0
-143 36 144 0
143 -36 144 0
143 36 -144 0
-144 -40 -145 0
-144 40 145 0
144 -40 145 0
144 40 -145 0
137 145 0
-3 -4 -146 0
-3 4 146 0
3 -4 146 0
3 4 -146 0
-146 -6 -147 0
-146 6 147 0
146 -6 147 0
146 6 -147 0
-147 -7 -148 0
-147 7 148 0
147 -7 148 0
147 7 -148 0
-148 -10 -149 0
-148 10 149 0
148 -10 149 0
148 10 -149 0
-23 -24 -150 0
-23 24 150 0
23 -24 150 0
23 24 -150 0
-150 -26 -151 0
-150 26 151 0
150 -26 151 0
150 26 -151 0
-151 -27 -152 0
-151 27 152 0
151 -27 152 0
151 27 -152 0
-152 -30 -153 0
-152 30 153 0
152 -30 153 0
152 30 -153 0
-153 -33 -154 0
-153 33 154 0
153 -33 154 0
153 33 -154 0
-154 -34 -155 0
-154 34 155 0
154 -34 155 0
154 34 -155 0
-155 -36 -156 0
-155 36 156 0
155 -36 156 0
155 36 -156 0
-156 -37 -157 0
-156 37 157 0
156 -37 157 0
156 37 -157 0
-157 -40 -158 0
-157 40 158 0
157 -40 158 0
157 40 -158 0
149 158 0
-1 -3 -159 0
-1 3 159 0
1 -3 159 0
1 3 -159 0
-159 -4 -160 0
-159 4 160 0
159 -4 160 0
159 4 -160 0
-160 -5 -161 0
-160 5 161 0
160 -5 161 0
160 5 -161 0
-161 -6 -162 0
-161 6 162 0
161 -6 162 0
161 6 -162 0
-162 -7 -163 0
-162 7 163 0
162 -7 163 0
162 7 -163 0
-163 -10 -164 0
-163 10 164 0
163 -10 164 0
163 10 -164 0
-11 -13 -165 0
-11 13 165 0
11 -13 165 0
11 13 -165 0
-165 -14 -166 0
-165 14 166 0
165 -14 166 0
165 14 -166 0
-166 -15 -167 0
-166 15 167 0
166 -15 167 0
166 15 -167 0
-167 -16 -168 0
-167 16 168 0
167 -16 168 0
167 16 -168 0
-168 -17 -169 0
-168 17 169 0
168 -17 169 0
168 17 -169 0
-169 -20 -170 0
-169 20 170 0
169 -20 170 0
169 20 -170 0
-170 -31 -171 0
-170 31 171 0
170 -31 171 0
170 31 -171 0
-171 -33 -172 0
-171 33 172 0
171 -33 172 0
171 33 -172 0
-172 -34 -173 0
-172 34 173 0
172 -34 173 0
172 34 -173 0
-173 -35 -174 0
-173 35 174 0
173 -35 174 0
173 35 -174 0
-174 -36 -175 0
-174 36 175 0
174 -36 175 0
174 36 -175 0
-175 -37 -176 0
-175 37 176 0
175 -37 176 0
175 37 -176 0
-176 -40 -177 0
-176 40 177 0
176 -40 177 0
176 40 -177 0
164 177 0
-1 -2 -178 0
-1 2 178 0
1 -2 178 0
1 2 -178 0
-178 -5 -179 0
-178 5 179 0
178 -5 179 0
178 5 -179 0
-179 -8 -180 0
-179 8 180 0
179 -8 180 0
179 8 -180 0
-180 -10 -181 0
-180 10 181 0
180 -10 181 0
180 10 -181 0
-31 -32 -182 0
-31 32 182 0
31 -32 182 0
31 32 -182 0
-182 -35 -183 0
-182 35 183 0
182 -35 183 0
182 35 -183 0
-183 -38 -184 0
-183 38 184 0
183 -38 184 0
183 38 -184 0
-184 -40 -185 0
-184 40 185 0
184 -40 185 0
184 40 -185 0
181 185 0
-1 -5 -186 0
-1 5 186 0
1 -5 186 0
1 5 -186 0
-186 -6 -187 0
-186 6 187 0
186 -6 187 0
186 6 -187 0
-187 -8 -188 0
-187 8 188 0
187 -8 188 0
187 8 -188 0
-188 -10 -189 0
-188 10 189 0
188 -10 189 0
188 10 -189 0
-11 -15 -190 0
-11 15 190 0
11 -15 190 0
11 15 -190 0
-190 -16 -191 0
-190 16 191 0
190 -16 191 0
190 16 -191 0
-191 -18 -192 0
-191 18 192 0
191 -18 192 0
191 18 -192 0
-192 -20 -193 0
-192 20 193 0
192 -20 193 0
192 20 -193 0
189 193 0
-1 -2 -194 0
-1 2 194 0
1 -2 194 0
1 2 -194 0
-194 -4 -195 0
-194 4 195 0
194 -4 195 0
194 4 -195 0
-195 -9 -196 0
-195 9 196 0
195 -9 196 0
195 9 -196 0
-196 -10 -197 0
-196 10 197 0
196 -10 197 0
196 10 -197 0
-11 -12 -198 0
-11 12 198 0
11 -12 198 0
11 12 -198 0
-198 -14 -199 0
-198 14 199 0
198 -14 199 0
198 14 -199 0
-199 -19 -200 0
-199 19 200 0
199 -19 200 0
199 19 -200 0
-200 -20 -201 0
-200 20 201 0
200 -20 201 0
200 20 -201 0
-201 -21 -202 0
-201 21 202 0
201 -21 202 0
201 21 -202 0
-202 -22 -203 0
-202 22 203 0
202 -22 203 0
202 22 -203 0
-203 -24 -204 0
-203 24 204 0
203 -24 204 0
203 24 -204 0
-204 -29 -205 0
-204 29 205 0
204 -29 205 0
204 29 -205 0
-205 -30 -206 0
-205 30 206 0
205 -30 206 0
205 30 -206 0
197 206 0
-2 -4 -207 0
-2 4 207 0
2 -4 207 0
2 4 -207 0
-207 -5 -208 0
-207 5 208 0
207 -5 208 0
207 5 -208 0
-208 -9 -209 0
-208 9 209 0
208 -9 209 0
208 9 -209 0
-209 -10 -210 0
-209 10 210 0
209 -10 210 0
209 10 -210 0
-12 -14 -211 0
-12 14 211 0
12 -14 211 0
12 14 -211 0
-211 -15 -212 0
-211 15 212 0
211 -15 212 0
211 15 -212 0
-212 -19 -213 0
-212 19 213 0
212 -19 213 0
212 19 -213 0
-213 -20 -214 0
-213 20 214 0
213 -20 214 0
213 20 -214 0
210 214 0
-1 -2 -215 0
-1 2 215 0
1 -2 215 0
1 2 -215 0
-215 -3 -216 0
-215 3 216 0
215 -3 216 0
215 3 -216 0
-216 -4 -217 0
-216 4 217 0
216 -4 217 0
216 4 -217 0
-217 -7 -218 0
-217 7 218 0
217 -7 218 0
217 7 -218 0
-218 -9 -219 0
-218 9 219 0
218 -9 219 0
218 9 -219 0
-219 -10 -220 0
-219 10 220 0
219 -10 220 0
219 10 -220 0
-11 -12 -221 0
-11 12 221 0
11 -12 221 0
11 12 -221 0
-221 -13 -222 0
-221 13 222 0
221 -13 222 0
221 13 -222 0
-222 -14 -223 0
-222 14 223 0
222 -14 223 0
222 14 -223 0
-223 -17 -224 0
-223 17 224 0
223 -17 224 0
223 17 -224 0
-224 -19 -225 0
-224 19 225 0
224 -19 225 0
224 19 -225 0
-225 -20 -226 0
-225 20 226 0
225 -20 226 0
225 20 -226 0
-226 -31 -227 0
-226 31 227 0
226 -31 227 0
226 31 -227 0
-227 -32 -228 0
-227 32 228 0
227 -32 228 0
227 32 -228 0
-228 -33 -229 0
-228 33 229 0
228 -33 229 0
228 33 -229 0
-229 -34 -230 0
-229 34 230 0
229 -34 230 0
229 34 -230 0
-230 -37 -231 0
-230 37 231 0
230 -37 231 0
230 37 -231 0
-231 -39 -232 0
-231 39 232 0
231 -39 232 0
231 39 -232 0
-232 -40 -233 0
-232 40 233 0
232 -40 233 0
232 40 -233 0
220 233 0
-1 -6 -234 0
-1 6 234 0
1 -6 234 0
1 6 -234 0
-234 -8 -235 0
-234 8 235 0
234 -8 235 0
234 8 -235 0
-235 -9 -236 0
-235 9 236 0
235 -9 236 0
235 9 -236 0
-236 -10 -237 0
-236 10 237 0
236 -10 237 0
236 10 -237 0
-21 -26 -238 0
-21 26 238 0
21 -26 238 0
21 26 -238 0
-238 -28 -239 0
-238 28 239 0
238 -28 239 0
238 28 -239 0
-239 -29 -240 0
-239 29 240 0
239 -29 240 0
239 29 -240 0
-240 -30 -241 0
-240 30 241 0
240 -30 241 0
240 30 -241 0
237 241 0
-1 -2 -242 0
-1 2 242 0
1 -2 242 0
1 2 -242 0
-242 -3 -243 0
-242 3 243 0
242 -3 243 0
242 3 -243 0
-243 -7 -244 0
-243 7 244 0
243 -7 244 0
243 7 -244 0
-244 -8 -245 0
-244 8 245 0
244 -8 245 0
244 8 -245 0
-245 -9 -246 0
-245 9 246 0
245 -9 246 0
245 9 -246 0
-246 -10 -247 0
-246 10 247 0
246 -10 247 0
246 10 -247 0
-31 -32 -248 0
-31 32 248 0
31 -32 248 0
31 32 -248 0
-248 -33 -249 0
-248 33 249 0
248 -33 249 0
248 33 -249 0
-249 -37 -250 0
-249 37 250 0
249 -37 250 0
249 37 -250 0
-250 -38 -251 0
-250 38 251 0
250 -38 251 0
250 38 -251 0
-251 -39 -252 0
-251 39 252 0
251 -39 252 0
251 39 -252 0
-252 -40 -253 0
-252 40 253 0
252 -40 253 0
252 40 -253 0
247 253 0
-2 -3 -254 0
-2 3 254 0
2 -3 254 0
2 3 -254 0
-254 -5 -255 0
-254 5 255 0
254 -5 255 0
254 5 -255 0
-255 -7 -256 0
-255 7 256 0
255 -7 256 0
255 7 -256 0
-256 -8 -257 0
-256 8 257 0
256 -8 257 0
256 8 -257 0
-257 -9 -258 0
-257 9 258 0
257 -9 258 0
257 9 -258 0
-258 -10 -259 0
-258 10 259 0
258 -10 259 0
258 10 -259 0
-12 -13 -260 0
-12 13 260 0
12 -13 260 0
12 13 -260 0
-260 -15 -261 0
-260 15 261 0
260 -15 261 0
260 15 -261 0
-261 -17 -262 0
-261 17 262 0
261 -17 262 0
261 17 -262 0
-262 -18 -263 0
-262 18 263 0
262 -18 263 0
262 18 -263 0
-263 -19 -264 0
-263 19 264 0
263 -19 264 0
263 19 -264 0
-264 -20 -265 0
-264 20 265 0
264 -20 265 0
264 20 -265 0
-265 -22 -266 0
-265 22 266 0
265 -22 266 0
265 22 -266 0
-266 -23 -267 0
-266 23 267 0
266 -23 267 0
266 23 -267 0
-267 -25 -268 0
-267 25 268 0
267 -25 268 0
267 25 -268 0
-268 -27 -269 0
-268 27 269 0
268 -27 269 0
268 27 -269 0
-269 -28 -270 0
-269 28 270 0
269 -28 270 0
269 28 -270 0
-270 -29 -271 0
-270 29 271 0
270 -29 271 0
270 29 -271 0
-271 -30 -272 0
-271 30 272 0
271 -30 272 0
271 30 -272 0
-272 -32 -273 0
-272 32 273 0
272 -32 273 0
272 32 -273 0
-273 -33 -274 0
-273 33 274 0
273 -33 274 0
273 33 -274 0
-274 -35 -275 0
-274 35 275 0
274 -35 275 0
274 35 -275 0
-275 -37 -276 0
-275 37 276 0
275 -37 276 0
275 37 -276 0
-276 -38 -277 0
-276 38 277 0
276 -38 277 0
276 38 -277 0
-277 -39 -278 0
-277 39 278 0
277 -39 278 0
277 39 -278 0
-278 -40 -279 0
-278 40 279 0
278 -40 279 0
278 40 -279 0
259 279 0
-1 -3 -280 0
-1 3 280 0
1 -3 280 0
1 3 -280 0
-280 -6 -281 0
-280 6 281 0
280 -6 281 0
280 6 -281 0
-281 -7 -282 0
-281 7 282 0
281 -7 282 0
281 7 -282 0
-282 -8 -283 0
-282 8 283 0
282 -8 283 0
282 8 -283 0
-283 -9 -284 0
-283 9 284 0
283 -9 284 0
283 9 -284 0
-284 -10 -285 0
-284 10 285 0
284 -10 285 0
284 10 -285 0
-21 -23 -286 0
-21 23 286 0
21 -23 286 0
21 23 -286 0
-286 -26 -287 0
-286 26 287 0
286 -26 287 0
286 26 -287 0
-287 -27 -288 0
-287 27 288 0
287 -27 288 0
287 27 -288 0
-288 -28 -289 0
-288 28 289 0
288 -28 289 0
288 28 -289 0
-289 -29 -290 0
-289 29 290 0
289 -29 290 0
289 29 -290 0
-290 -30 -291 0
-290 30 291 0
290 -30 291 0
290 30 -291 0
-291 -31 -292 0
-291 31 292 0
291 -31 292 0
291 31 -292 0
-292 -33 -293 0
-292 33 293 0
292 -33 293 0
292 33 -293 0
-293 -36 -294 0
-293 36 294 0
293 -36 294 0
293 36 -294 0
-294 -37 -295 0
-294 37 295 0
294 -37 295 0
294 37 -295 0
-295 -38 -296 0
-295 38 296 0
295 -38 296 0
295 38 -296 0
-296 -39 -297 0
-296 39 297 0
296 -39 297 0
296 39 -297 0
-297 -40 -298 0
-297 40 298 0
297 -40 298 0
297 40 -298 0
285 298 0
-1 -2 -299 0
-1 2 299 0
1 -2 299 0
1 2 -299 0
-299 -9 -300 0
-299 9 300 0
299 -9 300 0
299 9 -300 0
-300 -11 -301 0
-300 11 301 0
300 -11 301 0
300 11 -301 0
-301 -12 -302 0
-301 12 302 0
301 -12 302 0
301 12 -302 0
-302 -19 -303 0
-302 19 303 0
302 -19 303 0
302 19 -303 0
-1 -2 -304 0
-1 2 304 0
1 -2 304 0
1 2 -304 0
-304 -9 -305 0
-304 9 305 0
304 -9 305 0
304 9 -305 0
-305 -31 -306 0
-305 31 306 0
305 -31 306 0
305 31 -306 0
-306 -32 -307 0
-306 32 307 0
306 -32 307 0
306 32 -307 0
-307 -39 -308 0
-307 39 308 0
307 -39 308 0
307 39 -308 0
303 308 0
-14 -19 -309 0
-14 19 309 0
14 -19 309 0
14 19 -309 0
-24 -29 -310 0
-24 29 310 0
24 -29 310 0
24 29 -310 0
-310 -34 -311 0
-310 34 311 0
310 -34 311 0
310 34 -311 0
-311 -39 -312 0
-311 39 312 0
311 -39 312 0
311 39 -312 0
309 312 0
-2 -3 -313 0
-2 3 313 0
2 -3 313 0
2 3 -313 0
-313 -6 -314 0
-313 6 314 0
313 -6 314 0
313 6 -314 0
-314 -9 -315 0
-314 9 315 0
314 -9 315 0
314 9 -315 0
-315 -12 -316 0
-315 12 316 0
315 -12 316 0
315 12 -316 0
-316 -13 -317 0
-316 13 317 0
316 -13 317 0
316 13 -317 0
-317 -16 -318 0
-317 16 318 0
317 -16 318 0
317 16 -318 0
-318 -19 -319 0
-318 19 319 0
318 -19 319 0
318 19 -319 0
-2 -3 -320 0
-2 3 320 0
2 -3 320 0
2 3 -320 0
-320 -6 -321 0
-320 6 321 0
320 -6 321 0
320 6 -321 0
-321 -9 -322 0
-321 9 322 0
321 -9 322 0
321 9 -322 0
-322 -22 -323 0
-322 22 323 0
322 -22 323 0
322 22 -323 0
-323 -23 -324 0
-323 23 324 0
323 -23 324 0
323 23 -324 0
-324 -26 -325 0
-324 26 325 0
324 -26 325 0
324 26 -325 0
-325 -29 -326 0
-325 29 326 0
325 -29 326 0
325 29 -326 0
-326 -32 -327 0
-326 32 327 0
326 -32 327 0
326 32 -327 0
-327 -33 -328 0
-327 33 328 0
327 -33 328 0
327 33 -328 0
-328 -36 -329 0
-328 36 329 0
328 -36 329 0
328 36 -329 0
-329 -39 -330 0
-329 39 330 0
329 -39 330 0
329 39 -330 0
319 330 0
-1 -2 -331 0
-1 2 331 0
1 -2 331 0
1 2 -331 0
-331 -3 -332 0
-331 3 332 0
331 -3 332 0
331 3 -332 0
-332 -5 -333 0
-332 5 333 0
332 -5 333 0
332 5 -333 0
-333 -7 -334 0
-333 7 334 0
333 -7 334 0
333 7 -334 0
-334 -9 -335 0
-334 9 335 0
334 -9 335 0
334 9 -335 0
-335 -11 -336 0
-335 11 336 0
335 -11 336 0
335 11 -336 0
-336 -12 -337 0
-336 12 337 0
336 -12 337 0
336 12 -337 0
-337 -13 -338 0
-337 13 338 0
337 -13 338 0
337 13 -338 0
-338 -15 -339 0
-338 15 339 0
338 -15 339 0
338 15 -339 0
-339 -17 -340 0
-339 17 340 0
339 -17 340 0
339 17 -340 0
-340 -19 -341 0
-340 19 341 0
340 -19 341 0
340 19 -341 0
-21 -22 -342 0
-21 22 342 0
21 -22 342 0
21 22 -342 0
-342 -23 -343 0
-342 23 343 0
342 -23 343 0
342 23 -343 0
-343 -25 -344 0
-343 25 344 0
343 -25 344 0
343 25 -344 0
-344 -27 -345 0
-344 27 345 0
344 -27 345 0
344 27 -345 0
-345 -29 -346 0
-345 29 346 0
345 -29 346 0
345 29 -346 0
-346 -31 -347 0
-346 31 347 0
346 -31 347 0
346 31 -347 0
-347 -32 -348 0
-347 32 348 0
347 -32 348 0
347 32 -348 0
-348 -33 -349 0
-348 33 349 0
348 -33 349 0
348 33 -349 0
-349 -35 -350 0
-349 35 350 0
349 -35 350 0
349 35 -350 0
-350 -37 -351 0
-350 37 351 0
350 -37 351 0
350 37 -351 0
-351 -39 -352 0
-351 39 352 0
351 -39 352 0
351 39 -352 0
341 352 0
-11 -14 -353 0
-11 14 353 0
11 -14 353 0
11 14 -353 0
-353 -16 -354 0
-353 16 354 0
353 -16 354 0
353 16 -354 0
-354 -17 -355 0
-354 17 355 0
354 -17 355 0
354 17 -355 0
-355 -19 -356 0
-355 19 356 0
355 -19 356 0
355 19 -356 0
-1 -4 -357 0
-1 4 357 0
1 -4 357 0
1 4 -357 0
-357 -6 -358 0
-357 6 358 0
357 -6 358 0
357 6 -358 0
-358 -7 -359 0
-358 7 359 0
358 -7 359 0
358 7 -359 0
-359 -9 -360 0
-359 9 360 0
359 -9 360 0
359 9 -360 0
-360 -21 -361 0
-360 21 361 0
360 -21 361 0
360 21 -361 0
-361 -24 -362 0
-361 24 362 0
361 -24 362 0
361 24 -362 0
-362 -26 -363 0
-362 26 363 0
362 -26 363 0
362 26 -363 0
-363 -27 -364 0
-363 27 364 0
363 -27 364 0
363 27 -364 0
-364 -29 -365 0
-364 29 365 0
364 -29 365 0
364 29 -365 0
356 365 0
-3 -4 -366 0
-3 4 366 0
3 -4 366 0
3 4 -366 0
-366 -6 -367 0
-366 6 367 0
366 -6 367 0
366 6 -367 0
-367 -7 -368 0
-367 7 368 0
367 -7 368 0
367 7 -368 0
-368 -9 -369 0
-368 9 369 0
368 -9 369 0
368 9 -369 0
-369 -13 -370 0
-369 13 370 0
369 -13 370 0
369 13 -370 0
-370 -14 -371 0
-370 14 371 0
370 -14 371 0
370 14 -371 0
-371 -16 -372 0
-371 16 372 0
371 -16 372 0
371 16 -372 0
-372 -17 -373 0
-372 17 373 0
372 -17 373 0
372 17 -373 0
-373 -19 -374 0
-373 19 374 0
373 -19 374 0
373 19 -374 0
-33 -34 -375 0
-33 34 375 0
33 -34 375 0
33 34 -375 0
-375 -36 -376 0
-375 36 376 0
375 -36 376 0
375 36 -376 0
-376 -37 -377 0
-376 37 377 0
376 -37 377 0
376 37 -377 0
-377 -39 -378 0
-377 39 378 0
377 -39 378 0
377 39 -378 0
374 378 0
-2 -5 -379 0
-2 5 379 0
2 -5 379 0
2 5 -379 0
-379 -6 -380 0
-379 6 380 0
379 -6 380 0
379 6 -380 0
-380 -7 -381 0
-380 7 381 0
380 -7 381 0
380 7 -381 0
-381 -9 -382 0
-381 9 382 0
381 -9 382 0
381 9 -382 0
-382 -12 -383 0
-382 12 383 0
382 -12 383 0
382 12 -383 0
-383 -15 -384 0
-383 15 384 0
383 -15 384 0
383 15 -384 0
-384 -16 -385 0
-384 16 385 0
384 -16 385 0
384 16 -385 0
-385 -17 -386 0
-385 17 386 0
385 -17 386 0
385 17 -386 0
-386 -19 -387 0
-386 19 387 0
386 -19 387 0
386 19 -387 0
-22 -25 -388 0
-22 25 388 0
22 -25 388 0
22 25 -388 0
-388 -26 -389 0
-388 26 389 0
388 -26 389 0
388 26 -389 0
-389 -27 -390 0
-389 27 390 0
389 -27 390 0
389 27 -390 0
-390 -29 -391 0
-390 29 391 0
390 -29 391 0
390 29 -391 0
387 391 0
-11 -13 -392 0
-11 13 392 0
11 -13 392 0
11 13 -392 0
-392 -14 -393 0
-392 14 393 0
392 -14 393 0
392 14 -393 0
-393 -15 -394 0
-393 15 394 0
393 -15 394 0
393 15 -394 0
-394 -16 -395 0
-394 16 395 0
394 -16 395 0
394 16 -395 0
-395 -17 -396 0
-395 17 396 0
395 -17 396 0
395 17 -396 0
-396 -19 -397 0
-396 19 397 0
396 -19 397 0
396 19 -397 0
-1 -3 -398 0
-1 3 398 0
1 -3 398 0
1 3 -398 0
-398 -4 -399 0
-398 4 399 0
398 -4 399 0
398 4 -399 0
-399 -5 -400 0
-399 5 400 0
399 -5 400 0
399 5 -400 0
-400 -6 -401 0
-400 6 401 0
400 -6 401 0
400 6 -401 0
-401 -7 -402 0
-401 7 402 0
401 -7 402 0
401 7 -402 0
-402 -9 -403 0
-402 9 403 0
402 -9 403 0
402 9 -403 0
-403 -21 -404 0
-403 21 404 0
403 -21 404 0
403 21 -404 0
-404 -23 -405 0
-404 23 405 0
404 -23 405 0
404 23 -405 0
-405 -24 -406 0
-405 24 406 0
405 -24 406 0
405 24 -406 0
-406 -25 -407 0
-406 25 407 0
406 -25 407 0
406 25 -407 0
-407 -26 -408 0
-407 26 408 0
407 -26 408 0
407 26 -408 0
-408 -27 -409 0
-408 27 409 0
408 -27 409 0
408 27 -409 0
-409 -29 -410 0
-409 29 410 0
409 -29 410 0
409 29 -410 0
-410 -31 -411 0
-410 31 411 0
410 -31 411 0
410 31 -411 0
-411 -33 -412 0
-411 33 412 0
411 -33 412 0
411 33 -412 0
-412 -34 -413 0
-412 34 413 0
412 -34 413 0
412 34 -413 0
-413 -35 -414 0
-413 35 414 0
413 -35 414 0
413 35 -414 0
-414 -36 -415 0
-414 36 415 0
414 -36 415 0
414 36 -415 0
-415 -37 -416 0
-415 37 416 0
415 -37 416 0
415 37 -416 0
-416 -39 -417 0
-416 39 417 0
416 -39 417 0
416 39 -417 0
397 417 0
-11 -12 -418 0
-11 12 418 0
11 -12 418 0
11 12 -418 0
-418 -13 -419 0
-418 13 419 0
418 -13 419 0
418 13 -419 0
-419 -15 -420 0
-419 15 420 0
419 -15 420 0
419 15 -420 0
-420 -18 -421 0
-420 18 421 0
420 -18 421 0
420 18 -421 0
-421 -19 -422 0
-421 19 422 0
421 -19 422 0
421 19 -422 0
-1 -2 -423 0
-1 2 423 0
1 -2 423 0
1 2 -423 0
-423 -3 -424 0
-423 3 424 0
423 -3 424 0
423 3 -424 0
-424 -5 -425 0
-424 5 425 0
424 -5 425 0
424 5 -425 0
-425 -8 -426 0
-425 8 426 0
425 -8 426 0
425 8 -426 0
-426 -9 -427 0
-426 9 427 0
426 -9 427 0
426 9 -427 0
-427 -31 -428 0
-427 31 428 0
427 -31 428 0
427 31 -428 0
-428 -32 -429 0
-428 32 429 0
428 -32 429 0
428 32 -429 0
-429 -33 -430 0
-429 33 430 0
429 -33 430 0
429 33 -430 0
-430 -35 -431 0
-430 35 431 0
430 -35 431 0
430 35 -431 0
-431 -38 -432 0
-431 38 432 0
431 -38 432 0
431 38 -432 0
-432 -39 -433 0
-432 39 433 0
432 -39 433 0
432 39 -433 0
422 433 0
-3 -7 -434 0
-3 7 434 0
3 -7 434 0
3 7 -434 0
-434 -8 -435 0
-434 8 435 0
434 -8 435 0
434 8 -435 0
-435 -9 -436 0
-435 9 436 0
435 -9 436 0
435 9 -436 0
-436 -13 -437 0
-436 13 437 0
436 -13 437 0
436 13 -437 0
-437 -17 -438 0
-437 17 438 0
437 -17 438 0
437 17 -438 0
-438 -18 -439 0
-438 18 439 0
438 -18 439 0
438 18 -439 0
-439 -19 -440 0
-439 19 440 0
439 -19 440 0
439 19 -440 0
-3 -7 -441 0
-3 7 441 0
3 -7 441 0
3 7 -441 0
-441 -8 -442 0
-441 8 442 0
441 -8 442 0
441 8 -442 0
-442 -9 -443 0
-442 9 443 0
442 -9 443 0
442 9 -443 0
-443 -23 -444 0
-443 23 444 0
443 -23 444 0
443 23 -444 0
-444 -27 -445 0
-444 27 445 0
444 -27 445 0
444 27 -445 0
-445 -28 -446 0
-445 28 446 0
445 -28 446 0
445 28 -446 0
-446 -29 -447 0
-446 29 447 0
446 -29 447 0
446 29 -447 0
440 447 0
-12 -13 -448 0
-12 13 448 0
12 -13 448 0
12 13 -448 0
-448 -14 -449 0
-448 14 449 0
448 -14 449 0
448 14 -449 0
-449 -15 -450 0
-449 15 450 0
449 -15 450 0
449 15 -450 0
-450 -17 -451 0
-450 17 451 0
450 -17 451 0
450 17 -451 0
-451 -18 -452 0
-451 18 452 0
451 -18 452 0
451 18 -452 0
-452 -19 -453 0
-452 19 453 0
452 -19 453 0
452 19 -453 0
-22 -23 -454 0
-22 23 454 0
22 -23 454 0
22 23 -454 0
-454 -24 -455 0
-454 24 455 0
454 -24 455 0
454 24 -455 0
-455 -25 -456 0
-455 25 456 0
455 -25 456 0
455 25 -456 0
-456 -27 -457 0
-456 27 457 0
456 -27 457 0
456 27 -457 0
-457 -28 -458 0
-457 28 458 0
457 -28 458 0
457 28 -458 0
-458 -29 -459 0
-458 29 459 0
458 -29 459 0
458 29 -459 0
453 459 0
-12 -13 -460 0
-12 13 460 0
12 -13 460 0
12 13 -460 0
-460 -15 -461 0
-460 15 461 0
460 -15 461 0
460 15 -461 0
-461 -16 -462 0
-461 16 462 0
461 -16 462 0
461 16 -462 0
-462 -17 -463 0
-462 17 463 0
462 -17 463 0
462 17 -463 0
-463 -18 -464 0
-463 18 464 0
463 -18 464 0
463 18 -464 0
-464 -19 -465 0
-464 19 465 0
464 -19 465 0
464 19 -465 0
-32 -33 -466 0
-32 33 466 0
32 -33 466 0
32 33 -466 0
-466 -35 -467 0
-466 35 467 0
466 -35 467 0
466 35 -467 0
-467 -36 -468 0
-467 36 468 0
467 -36 468 0
467 36 -468 0
-468 -37 -469 0
-468 37 469 0
468 -37 469 0
468 37 -469 0
-469 -38 -470 0
-469 38 470 0
469 -38 470 0
469 38 -470 0
-470 -39 -471 0
-470 39 471 0
470 -39 471 0
470 39 -471 0
465 471 0
-12 -13 -472 0
-12 13 472 0
12 -13 472 0
12 13 -472 0
-472 -20 -473 0
-472 20 473 0
472 -20 473 0
472 20 -473 0
-22 -23 -474 0
-22 23 474 0
22 -23 474 0
22 23 -474 0
-474 -30 -475 0
-474 30 475 0
474 -30 475 0
474 30 -475 0
-475 -32 -476 0
-475 32 476 0
475 -32 476 0
475 32 -476 0
-476 -33 -477 0
-476 33 477 0
476 -33 477 0
476 33 -477 0
-477 -40 -478 0
-477 40 478 0
477 -40 478 0
477 40 -478 0
473 478 0
-1 -2 -479 0
-1 2 479 0
1 -2 479 0
1 2 -479 0
-479 -3 -480 0
-479 3 480 0
479 -3 480 0
479 3 -480 0
-480 -10 -481 0
-480 10 481 0
480 -10 481 0
480 10 -481 0
-481 -11 -482 0
-481 11 482 0
481 -11 482 0
481 11 -482 0
-482 -12 -483 0
-482 12 483 0
482 -12 483 0
482 12 -483 0
-483 -13 -484 0
-483 13 484 0
483 -13 484 0
483 13 -484 0
-484 -20 -485 0
-484 20 485 0
484 -20 485 0
484 20 -485 0
-1 -2 -486 0
-1 2 486 0
1 -2 486 0
1 2 -486 0
-486 -3 -487 0
-486 3 487 0
486 -3 487 0
486 3 -487 0
-487 -10 -488 0
-487 10 488 0
487 -10 488 0
487 10 -488 0
-488 -31 -489 0
-488 31 489 0
488 -31 489 0
488 31 -489 0
-489 -32 -490 0
-489 32 490 0
489 -32 490 0
489 32 -490 0
-490 -33 -491 0
-490 33 491 0
490 -33 491 0
490 33 -491 0
-491 -40 -492 0
-491 40 492 0
491 -40 492 0
491 40 -492 0
485 492 0
-12 -13 -493 0
-12 13 493 0
12 -13 493 0
12 13 -493 0
-493 -14 -494 0
-493 14 494 0
493 -14 494 0
493 14 -494 0
-494 -16 -495 0
-494 16 495 0
494 -16 495 0
494 16 -495 0
-495 -20 -496 0
-495 20 496 0
495 -20 496 0
495 20 -496 0
-32 -33 -497 0
-32 33 497 0
32 -33 497 0
32 33 -497 0
-497 -34 -498 0
-497 34 498 0
497 -34 498 0
497 34 -498 0
-498 -36 -499 0
-498 36 499 0
498 -36 499 0
498 36 -499 0
-499 -40 -500 0
-499 40 500 0
499 -40 500 0
499 40 -500 0
496 500 0
-1 -3 -501 0
-1 3 501 0
1 -3 501 0
1 3 -501 0
-501 -4 -502 0
-501 4 502 0
501 -4 502 0
501 4 -502 0
-502 -7 -503 0
-502 7 503 0
502 -7 503 0
502 7 -503 0
-503 -10 -504 0
-503 10 504 0
503 -10 504 0
503 10 -504 0
-504 -11 -505 0
-504 11 505 0
504 -11 505 0
504 11 -505 0
-505 -13 -506 0
-505 13 506 0
505 -13 506 0
505 13 -506 0
-506 -14 -507 0
-506 14 507 0
506 -14 507 0
506 14 -507 0
-507 -17 -508 0
-507 17 508 0
507 -17 508 0
507 17 -508 0
-508 -20 -509 0
-508 20 509 0
508 -20 509 0
508 20 -509 0
-21 -23 -510 0
-21 23 510 0
21 -23 510 0
21 23 -510 0
-510 -24 -511 0
-510 24 511 0
510 -24 511 0
510 24 -511 0
-511 -27 -512 0
-511 27 512 0
511 -27 512 0
511 27 -512 0
-512 -30 -513 0
-512 30 513 0
512 -30 513 0
512 30 -513 0
509 513 0
-11 -12 -514 0
-11 12 514 0
11 -12 514 0
11 12 -514 0
-514 -13 -515 0
-514 13 515 0
514 -13 515 0
514 13 -515 0
-515 -14 -516 0
-515 14 516 0
515 -14 516 0
515 14 -516 0
-516 -17 -517 0
-516 17 517 0
516 -17 517 0
516 17 -517 0
-517 -20 -518 0
-517 20 518 0
517 -20 518 0
517 20 -518 0
-1 -2 -519 0
-1 2 519 0
1 -2 519 0
1 2 -519 0
-519 -3 -520 0
-519 3 520 0
519 -3 520 0
519 3 -520 0
-520 -4 -521 0
-520 4 521 0
520 -4 521 0
520 4 -521 0
-521 -7 -522 0
-521 7 522 0
521 -7 522 0
521 7 -522 0
-522 -10 -523 0
-522 10 523 0
522 -10 523 0
522 10 -523 0
-523 -21 -524 0
-523 21 524 0
523 -21 524 0
523 21 -524 0
-524 -22 -525 0
-524 22 525 0
524 -22 525 0
524 22 -525 0
-525 -23 -526 0
-525 23 526 0
525 -23 526 0
525 23 -526 0
-526 -24 -527 0
-526 24 527 0
526 -24 527 0
526 24 -527 0
-527 -27 -528 0
-527 27 528 0
527 -27 528 0
527 27 -528 0
-528 -30 -529 0
-528 30 529 0
528 -30 529 0
528 30 -529 0
-529 -31 -530 0
-529 31 530 0
529 -31 530 0
529 31 -530 0
-530 -32 -531 0
-530 32 531 0
530 -32 531 0
530 32 -531 0
-531 -33 -532 0
-531 33 532 0
531 -33 532 0
531 33 -532 0
-532 -34 -533 0
-532 34 533 0
532 -34 533 0
532 34 -533 0
-533 -37 -534 0
-533 37 534 0
533 -37 534 0
533 37 -534 0
-534 -40 -535 0
-534 40 535 0
534 -40 535 0
534 40 -535 0
518 535 0
-1 -2 -536 0
-1 2 536 0
1 -2 536 0
1 2 -536 0
-536 -5 -537 0
-536 5 537 0
536 -5 537 0
536 5 -537 0
-537 -7 -538 0
-537 7 538 0
537 -7 538 0
537 7 -538 0
-538 -10 -539 0
-538 10 539 0
538 -10 539 0
538 10 -539 0
-539 -11 -540 0
-539 11 540 0
539 -11 540 0
539 11 -540 0
-540 -12 -541 0
-540 12 541 0
540 -12 541 0
540 12 -541 0
-541 -15 -542 0
-541 15 542 0
541 -15 542 0
541 15 -542 0
-542 -17 -543 0
-542 17 543 0
542 -17 543 0
542 17 -543 0
-543 -20 -544 0
-543 20 544 0
543 -20 544 0
543 20 -544 0
-1 -2 -545 0
-1 2 545 0
1 -2 545 0
1 2 -545 0
-545 -5 -546 0
-545 5 546 0
545 -5 546 0
545 5 -546 0
-546 -7 -547 0
-546 7 547 0
546 -7 547 0
546 7 -547 0
-547 -10 -548 0
-547 10 548 0
547 -10 548 0
547 10 -548 0
-548 -21 -549 0
-548 21 549 0
548 -21 549 0
548 21 -549 0
-549 -22 -550 0
-549 22 550 0
549 -22 550 0
549 22 -550 0
-550 -25 -551 0
-550 25 551 0
550 -25 551 0
550 25 -551 0
-551 -27 -552 0
-551 27 552 0
551 -27 552 0
551 27 -552 0
-552 -30 -553 0
-552 30 553 0
552 -30 553 0
552 30 -553 0
544 553 0
-3 -5 -554 0
-3 5 554 0
3 -5 554 0
3 5 -554 0
-554 -8 -555 0
-554 8 555 0
554 -8 555 0
554 8 -555 0
-555 -10 -556 0
-555 10 556 0
555 -10 556 0
555 10 -556 0
-556 -13 -557 0
-556 13 557 0
556 -13 557 0
556 13 -557 0
-557 -15 -558 0
-557 15 558 0
557 -15 558 0
557 15 -558 0
-558 -18 -559 0
-558 18 559 0
558 -18 559 0
558 18 -559 0
-559 -20 -560 0
-559 20 560 0
559 -20 560 0
559 20 -560 0
-23 -25 -561 0
-23 25 561 0
23 -25 561 0
23 25 -561 0
-561 -28 -562 0
-561 28 562 0
561 -28 562 0
561 28 -562 0
-562 -30 -563 0
-562 30 563 0
562 -30 563 0
562 30 -563 0
-563 -33 -564 0
-563 33 564 0
563 -33 564 0
563 33 -564 0
-564 -35 -565 0
-564 35 565 0
564 -35 565 0
564 35 -565 0
-565 -38 -566 0
-565 38 566 0
565 -38 566 0
565 38 -566 0
-566 -40 -567 0
-566 40 567 0
566 -40 567 0
566 40 -567 0
560 567 0
-13 -17 -568 0
-13 17 568 0
13 -17 568 0
13 17 -568 0
-568 -18 -569 0
-568 18 569 0
568 -18 569 0
568 18 -569 0
-569 -20 -570 0
-569 20 570 0
569 -20 570 0
569 20 -570 0
-3 -7 -571 0
-3 7 571 0
3 -7 571 0
3 7 -571 0
-571 -8 -572 0
-571 8 572 0
571 -8 572 0
571 8 -572 0
-572 -10 -573 0
-572 10 573 0
572 -10 573 0
572 10 -573 0
-573 -33 -574 0
-573 33 574 0
573 -33 574 0
573 33 -574 0
-574 -37 -575 0
-574 37 575 0
574 -37 575 0
574 37 -575 0
-575 -38 -576 0
-575 38 576 0
575 -38 576 0
575 38 -576 0
-576 -40 -577 0
-576 40 577 0
576 -40 577 0
576 40 -577 0
570 577 0
-2 -3 -578 0
-2 3 578 0
2 -3 578 0
2 3 -578 0
-578 -4 -579 0
-578 4 579 0
578 -4 579 0
578 4 -579 0
-579 -5 -580 0
-579 5 580 0
579 -5 580 0
579 5 -580 0
-580 -7 -581 0
-580 7 581 0
580 -7 581 0
580 7 -581 0
-581 -8 -582 0
-581 8 582 0
581 -8 582 0
581 8 -582 0
-582 -10 -583 0
-582 10 583 0
582 -10 583 0
582 10 -583 0
-583 -12 -584 0
-583 12 584 0
583 -12 584 0
583 12 -584 0
-584 -13 -585 0
-584 13 585 0
584 -13 585 0
584 13 -585 0
-585 -14 -586 0
-585 14 586 0
585 -14 586 0
585 14 -586 0
-586 -15 -587 0
-586 15 587 0
586 -15 587 0
586 15 -587 0
-587 -17 -588 0
-587 17 588 0
587 -17 588 0
587 17 -588 0
-588 -18 -589 0
-588 18 589 0
588 -18 589 0
588 18 -589 0
-589 -20 -590 0
-589 20 590 0
589 -20 590 0
589 20 -590 0
-2 -3 -591 0
-2 3 591 0
2 -3 591 0
2 3 -591 0
-591 -4 -592 0
-591 4 592 0
591 -4 592 0
591 4 -592 0
-592 -5 -593 0
-592 5 593 0
592 -5 593 0
592 5 -593 0
-593 -7 -594 0
-593 7 594 0
593 -7 594 0
593 7 -594 0
-594 -8 -595 0
-594 8 595 0
594 -8 595 0
594 8 -595 0
-595 -10 -596 0
-595 10 596 0
595 -10 596 0
595 10 -596 0
-596 -22 -597 0
-596 22 597 0
596 -22 597 0
596 22 -597 0
-597 -23 -598 0
-597 23 598 0
597 -23 598 0
597 23 -598 0
-598 -24 -599 0
-598 24 599 0
598 -24 599 0
598 24 -599 0
-599 -25 -600 0
-599 25 600 0
599 -25 600 0
599 25 -600 0
-600 -27 -601 0
-600 27 601 0
600 -27 601 0
600 27 -601 0
-601 -28 -602 0
-601 28 602 0
601 -28 602 0
601 28 -602 0
-602 -30 -603 0
-602 30 603 0
602 -30 603 0
602 30 -603 0
-603 -32 -604 0
-603 32 604 0
603 -32 604 0
603 32 -604 0
-604 -33 -605 0
-604 33 605 0
604 -33 605 0
604 33 -605 0
-605 -34 -606 0
-605 34 606 0
605 -34 606 0
605 34 -606 0
-606 -35 -607 0
-606 35 607 0
606 -35 607 0
606 35 -607 0
-607 -37 -608 0
-607 37 608 0
607 -37 608 0
607 37 -608 0
-608 -38 -609 0
-608 38 609 0
608 -38 609 0
608 38 -609 0
-609 -40 -610 0
-609 40 610 0
609 -40 610 0
609 40 -610 0
590 610 0
-1 -3 -611 0
-1 3 611 0
1 -3 611 0
1 3 -611 0
-611 -6 -612 0
-611 6 612 0
611 -6 612 0
611 6 -612 0
-612 -7 -613 0
-612 7 613 0
612 -7 613 0
612 7 -613 0
-613 -8 -614 0
-613 8 614 0
613 -8 614 0
613 8 -614 0
-614 -10 -615 0
-614 10 615 0
614 -10 615 0
614 10 -615 0
-615 -11 -616 0
-615 11 616 0
615 -11 616 0
615 11 -616 0
-616 -13 -617 0
-616 13 617 0
616 -13 617 0
616 13 -617 0
-617 -16 -618 0
-617 16 618 0
617 -16 618 0
617 16 -618 0
-618 -17 -619 0
-618 17 619 0
618 -17 619 0
618 17 -619 0
-619 -18 -620 0
-619 18 620 0
619 -18 620 0
619 18 -620 0
-620 -20 -621 0
-620 20 621 0
620 -20 621 0
620 20 -621 0
-31 -33 -622 0
-31 33 622 0
31 -33 622 0
31 33 -622 0
-622 -36 -623 0
-622 36 623 0
622 -36 623 0
622 36 -623 0
-623 -37 -624 0
-623 37 624 0
623 -37 624 0
623 37 -624 0
-624 -38 -625 0
-624 38 625 0
624 -38 625 0
624 38 -625 0
-625 -40 -626 0
-625 40 626 0
625 -40 626 0
625 40 -626 0
621 626 0
-13 -14 -627 0
-13 14 627 0
13 -14 627 0
13 14 -627 0
-627 -16 -628 0
-627 16 628 0
627 -16 628 0
627 16 -628 0
-628 -17 -629 0
-628 17 629 0
628 -17 629 0
628 17 -629 0
-629 -18 -630 0
-629 18 630 0
629 -18 630 0
629 18 -630 0
-630 -20 -631 0
-630 20 631 0
630 -20 631 0
630 20 -631 0
-3 -4 -632 0
-3 4 632 0
3 -4 632 0
3 4 -632 0
-632 -6 -633 0
-632 6 633 0
632 -6 633 0
632 6 -633 0
-633 -7 -634 0
-633 7 634 0
633 -7 634 0
633 7 -634 0
-634 -8 -635 0
-634 8 635 0
634 -8 635 0
634 8 -635 0
-635 -10 -636 0
-635 10 636 0
635 -10 636 0
635 10 -636 0
-636 -23 -637 0
-636 23 637 0
636 -23 637 0
636 23 -637 0
-637 -24 -638 0
-637 24 638 0
637 -24 638 0
637 24 -638 0
-638 -26 -639 0
-638 26 639 0
638 -26 639 0
638 26 -639 0
-639 -27 -640 0
-639 27 640 0
639 -27 640 0
639 27 -640 0
-640 -28 -641 0
-640 28 641 0
640 -28 641 0
640 28 -641 0
-641 -30 -642 0
-641 30 642 0
641 -30 642 0
641 30 -642 0
631 642 0
-14 -15 -643 0
-14 15 643 0
14 -15 643 0
14 15 -643 0
-643 -16 -644 0
-643 16 644 0
643 -16 644 0
643 16 -644 0
-644 -17 -645 0
-644 17 645 0
644 -17 645 0
644 17 -645 0
-645 -18 -646 0
-645 18 646 0
645 -18 646 0
645 18 -646 0
-646 -20 -647 0
-646 20 647 0
646 -20 647 0
646 20 -647 0
-24 -25 -648 0
-24 25 648 0
24 -25 648 0
24 25 -648 0
-648 -26 -649 0
-648 26 649 0
648 -26 649 0
648 26 -649 0
-649 -27 -650 0
-649 27 650 0
649 -27 650 0
649 27 -650 0
-650 -28 -651 0
-650 28 651 0
650 -28 651 0
650 28 -651 0
-651 -30 -652 0
-651 30 652 0
651 -30 652 0
651 30 -652 0
647 652 0
-3 -9 -653 0
-3 9 653 0
3 -9 653 0
3 9 -653 0
-653 -10 -654 0
-653 10 654 0
653 -10 654 0
653 10 -654 0
-654 -13 -655 0
-654 13 655 0
654 -13 655 0
654 13 -655 0
-655 -19 -656 0
-655 19 656 0
655 -19 656 0
655 19 -656 0
-656 -20 -657 0
-656 20 657 0
656 -20 657 0
656 20 -657 0
-3 -9 -658 0
-3 9 658 0
3 -9 658 0
3 9 -658 0
-658 -10 -659 0
-658 10 659 0
658 -10 659 0
658 10 -659 0
-659 -33 -660 0
-659 33 660 0
659 -33 660 0
659 33 -660 0
-660 -39 -661 0
-660 39 661 0
660 -39 661 0
660 39 -661 0
-661 -40 -662 0
-661 40 662 0
661 -40 662 0
661 40 -662 0
657 662 0
-12 -13 -663 0
-12 13 663 0
12 -13 663 0
12 13 -663 0
-663 -14 -664 0
-663 14 664 0
663 -14 664 0
663 14 -664 0
-664 -19 -665 0
-664 19 665 0
664 -19 665 0
664 19 -665 0
-665 -20 -666 0
-665 20 666 0
665 -20 666 0
665 20 -666 0
-22 -23 -667 0
-22 23 667 0
22 -23 667 0
22 23 -667 0
-667 -24 -668 0
-667 24 668 0
667 -24 668 0
667 24 -668 0
-668 -29 -669 0
-668 29 669 0
668 -29 669 0
668 29 -669 0
-669 -30 -670 0
-669 30 670 0
669 -30 670 0
669 30 -670 0
-670 -32 -671 0
-670 32 671 0
670 -32 671 0
670 32 -671 0
-671 -33 -672 0
-671 33 672 0
671 -33 672 0
671 33 -672 0
-672 -34 -673 0
-672 34 673 0
672 -34 673 0
672 34 -673 0
-673 -39 -674 0
-673 39 674 0
673 -39 674 0
673 39 -674 0
-674 -40 -675 0
-674 40 675 0
674 -40 675 0
674 40 -675 0
666 675 0
-12 -13 -676 0
-12 13 676 0
12 -13 676 0
12 13 -676 0
-676 -16 -677 0
-676 16 677 0
676 -16 677 0
676 16 -677 0
-677 -19 -678 0
-677 19 678 0
677 -19 678 0
677 19 -678 0
-678 -20 -679 0
-678 20 679 0
678 -20 679 0
678 20 -679 0
-22 -23 -680 0
-22 23 680 0
22 -23 680 0
22 23 -680 0
-680 -26 -681 0
-680 26 681 0
680 -26 681 0
680 26 -681 0
-681 -29 -682 0
-681 29 682 0
681 -29 682 0
681 29 -682 0
-682 -30 -683 0
-682 30 683 0
682 -30 683 0
682 30 -683 0
679 683 0
-12 -15 -684 0
-12 15 684 0
12 -15 684 0
12 15 -684 0
-684 -16 -685 0
-684 16 685 0
684 -16 685 0
684 16 -685 0
-685 -19 -686 0
-685 19 686 0
685 -19 686 0
685 19 -686 0
-686 -20 -687 0
-686 20 687 0
686 -20 687 0
686 20 -687 0
-2 -5 -688 0
-2 5 688 0
2 -5 688 0
2 5 -688 0
-688 -6 -689 0
-688 6 689 0
688 -6 689 0
688 6 -689 0
-689 -9 -690 0
-689 9 690 0
689 -9 690 0
689 9 -690 0
-690 -10 -691 0
-690 10 691 0
690 -10 691 0
690 10 -691 0
-691 -22 -692 0
-691 22 692 0
691 -22 692 0
691 22 -692 0
-692 -25 -693 0
-692 25 693 0
692 -25 693 0
692 25 -693 0
-693 -26 -694 0
-693 26 694 0
693 -26 694 0
693 26 -694 0
-694 -29 -695 0
-694 29 695 0
694 -29 695 0
694 29 -695 0
-695 -30 -696 0
-695 30 696 0
695 -30 696 0
695 30 -696 0
-696 -32 -697 0
-696 32 697 0
696 -32 697 0
696 32 -697 0
-697 -35 -698 0
-697 35 698 0
697 -35 698 0
697 35 -698 0
-698 -36 -699 0
-698 36 699 0
698 -36 699 0
698 36 -699 0
-699 -39 -700 0
-699 39 700 0
699 -39 700 0
699 39 -700 0
-700 -40 -701 0
-700 40 701 0
700 -40 701 0
700 40 -701 0
687 701 0
-1 -2 -702 0
-1 2 702 0
1 -2 702 0
1 2 -702 0
-702 -3 -703 0
-702 3 703 0
702 -3 703 0
702 3 -703 0
-703 -4 -704 0
-703 4 704 0
703 -4 704 0
703 4 -704 0
-704 -5 -705 0
-704 5 705 0
704 -5 705 0
704 5 -705 0
-705 -6 -706 0
-705 6 706 0
705 -6 706 0
705 6 -706 0
-706 -9 -707 0
-706 9 707 0
706 -9 707 0
706 9 -707 0
-707 -10 -708 0
-707 10 708 0
707 -10 708 0
707 10 -708 0
-708 -11 -709 0
-708 11 709 0
708 -11 709 0
708 11 -709 0
-709 -12 -710 0
-709 12 710 0
709 -12 710 0
709 12 -710 0
-710 -13 -711 0
-710 13 711 0
710 -13 711 0
710 13 -711 0
-711 -14 -712 0
-711 14 712 0
711 -14 712 0
711 14 -712 0
-712 -15 -713 0
-712 15 713 0
712 -15 713 0
712 15 -713 0
-713 -16 -714 0
-713 16 714 0
713 -16 714 0
713 16 -714 0
-714 -19 -715 0
-714 19 715 0
714 -19 715 0
714 19 -715 0
-715 -20 -716 0
-715 20 716 0
715 -20 716 0
715 20 -716 0
-21 -22 -717 0
-21 22 717 0
21 -22 717 0
21 22 -717 0
-717 -23 -718 0
-717 23 718 0
717 -23 718 0
717 23 -718 0
-718 -24 -719 0
-718 24 719 0
718 -24 719 0
718 24 -719 0
-719 -25 -720 0
-719 25 720 0
719 -25 720 0
719 25 -720 0
-720 -26 -721 0
-720 26 721 0
720 -26 721 0
720 26 -721 0
-721 -29 -722 0
-721 29 722 0
721 -29 722 0
721 29 -722 0
-722 -30 -723 0
-722 30 723 0
722 -30 723 0
722 30 -723 0
716 723 0
-11 -12 -724 0
-11 12 724 0
11 -12 724 0
11 12 -724 0
-724 -15 -725 0
-724 15 725 0
724 -15 725 0
724 15 -725 0
-725 -17 -726 0
-725 17 726 0
725 -17 726 0
725 17 -726 0
-726 -19 -727 0
-726 19 727 0
726 -19 727 0
726 19 -727 0
-727 -20 -728 0
-727 20 728 0
727 -20 728 0
727 20 -728 0
-1 -2 -729 0
-1 2 729 0
1 -2 729 0
1 2 -729 0
-729 -5 -730 0
-729 5 730 0
729 -5 730 0
729 5 -730 0
-730 -7 -731 0
-730 7 731 0
730 -7 731 0
730 7 -731 0
-731 -9 -732 0
-731 9 732 0
731 -9 732 0
731 9 -732 0
-732 -10 -733 0
-732 10 733 0
732 -10 733 0
732 10 -733 0
-733 -31 -734 0
-733 31 734 0
733 -31 734 0
733 31 -734 0
-734 -32 -735 0
-734 32 735 0
734 -32 735 0
734 32 -735 0
-735 -35 -736 0
-735 35 736 0
735 -35 736 0
735 35 -736 0
-736 -37 -737 0
-736 37 737 0
736 -37 737 0
736 37 -737 0
-737 -39 -738 0
-737 39 738 0
737 -39 738 0
737 39 -738 0
-738 -40 -739 0
-738 40 739 0
738 -40 739 0
738 40 -739 0
728 739 0
-11 -13 -740 0
-11 13 740 0
11 -13 740 0
11 13 -740 0
-740 -18 -741 0
-740 18 741 0
740 -18 741 0
740 18 -741 0
-741 -19 -742 0
-741 19 742 0
741 -19 742 0
741 19 -742 0
-742 -20 -743 0
-742 20 743 0
742 -20 743 0
742 20 -743 0
-1 -3 -744 0
-1 3 744 0
1 -3 744 0
1 3 -744 0
-744 -8 -745 0
-744 8 745 0
744 -8 745 0
744 8 -745 0
-745 -9 -746 0
-745 9 746 0
745 -9 746 0
745 9 -746 0
-746 -10 -747 0
-746 10 747 0
746 -10 747 0
746 10 -747 0
-747 -21 -748 0
-747 21 748 0
747 -21 748 0
747 21 -748 0
-748 -23 -749 0
-748 23 749 0
748 -23 749 0
748 23 -749 0
-749 -28 -750 0
-749 28 750 0
749 -28 750 0
749 28 -750 0
-750 -29 -751 0
-750 29 751 0
750 -29 751 0
750 29 -751 0
-751 -30 -752 0
-751 30 752 0
751 -30 752 0
751 30 -752 0
743 752 0
-1 -4 -753 0
-1 4 753 0
1 -4 753 0
1 4 -753 0
-753 -8 -754 0
-753 8 754 0
753 -8 754 0
753 8 -754 0
-754 -9 -755 0
-754 9 755 0
754 -9 755 0
754 9 -755 0
-755 -10 -756 0
-755 10 756 0
755 -10 756 0
755 10 -756 0
-756 -11 -757 0
-756 11 757 0
756 -11 757 0
756 11 -757 0
-757 -14 -758 0
-757 14 758 0
757 -14 758 0
757 14 -758 0
-758 -18 -759 0
-758 18 759 0
758 -18 759 0
758 18 -759 0
-759 -19 -760 0
-759 19 760 0
759 -19 760 0
759 19 -760 0
-760 -20 -761 0
-760 20 761 0
760 -20 761 0
760 20 -761 0
-31 -34 -762 0
-31 34 762 0
31 -34 762 0
31 34 -762 0
-762 -38 -763 0
-762 38 763 0
762 -38 763 0
762 38 -763 0
-763 -39 -764 0
-763 39 764 0
763 -39 764 0
763 39 -764 0
-764 -40 -765 0
-764 40 765 0
764 -40 765 0
764 40 -765 0
761 765 0
-1 -2 -766 0
-1 2 766 0
1 -2 766 0
1 2 -766 0
-766 -3 -767 0
-766 3 767 0
766 -3 767 0
766 3 -767 0
-767 -5 -768 0
-767 5 768 0
767 -5 768 0
767 5 -768 0
-768 -8 -769 0
-768 8 769 0
768 -8 769 0
768 8 -769 0
-769 -9 -770 0
-769 9 770 0
769 -9 770 0
769 9 -770 0
-770 -10 -771 0
-770 10 771 0
770 -10 771 0
770 10 -771 0
-771 -11 -772 0
-771 11 772 0
771 -11 772 0
771 11 -772 0
-772 -12 -773 0
-772 12 773 0
772 -12 773 0
772 12 -773 0
-773 -13 -774 0
-773 13 774 0
773 -13 774 0
773 13 -774 0
-774 -15 -775 0
-774 15 775 0
774 -15 775 0
774 15 -775 0
-775 -18 -776 0
-775 18 776 0
775 -18 776 0
775 18 -776 0
-776 -19 -777 0
-776 19 777 0
776 -19 777 0
776 19 -777 0
-777 -20 -778 0
-777 20 778 0
777 -20 778 0
777 20 -778 0
-1 -2 -779 0
-1 2 779 0
1 -2 779 0
1 2 -779 0
-779 -3 -780 0
-779 3 780 0
779 -3 780 0
779 3 -780 0
-780 -5 -781 0
-780 5 781 0
780 -5 781 0
780 5 -781 0
-781 -8 -782 0
-781 8 782 0
781 -8 782 0
781 8 -782 0
-782 -9 -783 0
-782 9 783 0
782 -9 783 0
782 9 -783 0
-783 -10 -784 0
-783 10 784 0
783 -10 784 0
783 10 -784 0
-784 -21 -785 0
-784 21 785 0
784 -21 785 0
784 21 -785 0
-785 -22 -786 0
-785 22 786 0
785 -22 786 0
785 22 -786 0
-786 -23 -787 0
-786 23 787 0
786 -23 787 0
786 23 -787 0
-787 -25 -788 0
-787 25 788 0
787 -25 788 0
787 25 -788 0
-788 -28 -789 0
-788 28 789 0
788 -28 789 0
788 28 -789 0
-789 -29 -790 0
-789 29 790 0
789 -29 790 0
789 29 -790 0
-790 -30 -791 0
-790 30 791 0
790 -30 791 0
790 30 -791 0
778 791 0
-1 -2 -792 0
-1 2 792 0
1 -2 792 0
1 2 -792 0
-792 -7 -793 0
-792 7 793 0
792 -7 793 0
792 7 -793 0
-793 -8 -794 0
-793 8 794 0
793 -8 794 0
793 8 -794 0
-794 -9 -795 0
-794 9 795 0
794 -9 795 0
794 9 -795 0
-795 -10 -796 0
-795 10 796 0
795 -10 796 0
795 10 -796 0
-796 -11 -797 0
-796 11 797 0
796 -11 797 0
796 11 -797 0
-797 -12 -798 0
-797 12 798 0
797 -12 798 0
797 12 -798 0
-798 -17 -799 0
-798 17 799 0
798 -17 799 0
798 17 -799 0
-799 -18 -800 0
-799 18 800 0
799 -18 800 0
799 18 -800 0
-800 -19 -801 0
-800 19 801 0
800 -19 801 0
800 19 -801 0
-801 -20 -802 0
-801 20 802 0
801 -20 802 0
801 20 -802 0
-21 -22 -803 0
-21 22 803 0
21 -22 803 0
21 22 -803 0
-803 -27 -804 0
-803 27 804 0
803 -27 804 0
803 27 -804 0
-804 -28 -805 0
-804 28 805 0
804 -28 805 0
804 28 -805 0
-805 -29 -806 0
-805 29 806 0
805 -29 806 0
805 29 -806 0
-806 -30 -807 0
-806 30 807 0
806 -30 807 0
806 30 -807 0
-807 -31 -808 0
-807 31 808 0
807 -31 808 0
807 31 -808 0
-808 -32 -809 0
-808 32 809 0
808 -32 809 0
808 32 -809 0
-809 -37 -810 0
-809 37 810 0
809 -37 810 0
809 37 -810 0
-810 -38 -811 0
-810 38 811 0
810 -38 811 0
810 38 -811 0
-811 -39 -812 0
-811 39 812 0
811 -39 812 0
811 39 -812 0
-812 -40 -813 0
-812 40 813 0
812 -40 813 0
812 40 -813 0
802 813 0
-14 -15 -814 0
-14 15 814 0
14 -15 814 0
14 15 -814 0
-814 -17 -815 0
-814 17 815 0
814 -17 815 0
814 17 -815 0
-815 -18 -816 0
-815 18 816 0
815 -18 816 0
815 18 -816 0
-816 -19 -817 0
-816 19 817 0
816 -19 817 0
816 19 -817 0
-817 -20 -818 0
-817 20 818 0
817 -20 818 0
817 20 -818 0
-34 -35 -819 0
-34 35 819 0
34 -35 819 0
34 35 -819 0
-819 -37 -820 0
-819 37 820 0
819 -37 820 0
819 37 -820 0
-820 -38 -821 0
-820 38 821 0
820 -38 821 0
820 38 -821 0
-821 -39 -822 0
-821 39 822 0
821 -39 822 0
821 39 -822 0
-822 -40 -823 0
-822 40 823 0
822 -40 823 0
822 40 -823 0
818 823 0
-4 -5 -824 0
-4 5 824 0
4 -5 824 0
4 5 -824 0
-824 -6 -825 0
-824 6 825 0
824 -6 825 0
824 6 -825 0
-825 -7 -826 0
-825 7 826 0
825 -7 826 0
825 7 -826 0
-826 -8 -827 0
-826 8 827 0
826 -8 827 0
826 8 -827 0
-827 -9 -828 0
-827 9 828 0
827 -9 828 0
827 9 -828 0
-828 -10 -829 0
-828 10 829 0
828 -10 829 0
828 10 -829 0
-829 -14 -830 0
-829 14 830 0
829 -14 830 0
829 14 -830 0
-830 -15 -831 0
-830 15 831 0
830 -15 831 0
830 15 -831 0
-831 -16 -832 0
-831 16 832 0
831 -16 832 0
831 16 -832 0
-832 -17 -833 0
-832 17 833 0
832 -17 833 0
832 17 -833 0
-833 -18 -834 0
-833 18 834 0
833 -18 834 0
833 18 -834 0
-834 -19 -835 0
-834 19 835 0
834 -19 835 0
834 19 -835 0
-835 -20 -836 0
-835 20 836 0
835 -20 836 0
835 20 -836 0
-4 -5 -837 0
-4 5 837 0
4 -5 837 0
4 5 -837 0
-837 -6 -838 0
-837 6 838 0
837 -6 838 0
837 6 -838 0
-838 -7 -839 0
-838 7 839 0
838 -7 839 0
838 7 -839 0
-839 -8 -840 0
-839 8 840 0
839 -8 840 0
839 8 -840 0
-840 -9 -841 0
-840 9 841 0
840 -9 841 0
840 9 -841 0
-841 -10 -842 0
-841 10 842 0
841 -10 842 0
841 10 -842 0
-842 -24 -843 0
-842 24 843 0
842 -24 843 0
842 24 -843 0
-843 -25 -844 0
-843 25 844 0
843 -25 844 0
843 25 -844 0
-844 -26 -845 0
-844 26 845 0
844 -26 845 0
844 26 -845 0
-845 -27 -846 0
-845 27 846 0
845 -27 846 0
845 27 -846 0
-846 -28 -847 0
-846 28 847 0
846 -28 847 0
846 28 -847 0
-847 -29 -848 0
-847 29 848 0
847 -29 848 0
847 29 -848 0
-848 -30 -849 0
-848 30 849 0
848 -30 849 0
848 30 -849 0
-849 -34 -850 0
-849 34 850 0
849 -34 850 0
849 34 -850 0
-850 -35 -851 0
-850 35 851 0
850 -35 851 0
850 35 -851 0
-851 -36 -852 0
-851 36 852 0
851 -36 852 0
851 36 -852 0
-852 -37 -853 0
-852 37 853 0
852 -37 853 0
852 37 -853 0
-853 -38 -854 0
-853 38 854 0
853 -38 854 0
853 38 -854 0
-854 -39 -855 0
-854 39 855 0
854 -39 855 0
854 39 -855 0
-855 -40 -856 0
-855 40 856 0
855 -40 856 0
855 40 -856 0
836 856 0
-1 -3 -857 0
-1 3 857 0
1 -3 857 0
1 3 -857 0
-857 -9 -858 0
-857 9 858 0
857 -9 858 0
857 9 -858 0
-858 -21 -859 0
-858 21 859 0
858 -21 859 0
858 21 -859 0
-859 -23 -860 0
-859 23 860 0
859 -23 860 0
859 23 -860 0
-860 -29 -861 0
-860 29 861 0
860 -29 861 0
860 29 -861 0
-31 -33 -862 0
-31 33 862 0
31 -33 862 0
31 33 -862 0
-862 -39 -863 0
-862 39 863 0
862 -39 863 0
862 39 -863 0
861 863 0
-21 -22 -864 0
-21 22 864 0
21 -22 864 0
21 22 -864 0
-864 -23 -865 0
-864 23 865 0
864 -23 865 0
864 23 -865 0
-865 -24 -866 0
-865 24 866 0
865 -24 866 0
865 24 -866 0
-866 -29 -867 0
-866 29 867 0
866 -29 867 0
866 29 -867 0
-1 -2 -868 0
-1 2 868 0
1 -2 868 0
1 2 -868 0
-868 -3 -869 0
-868 3 869 0
868 -3 869 0
868 3 -869 0
-869 -4 -870 0
-869 4 870 0
869 -4 870 0
869 4 -870 0
-870 -9 -871 0
-870 9 871 0
870 -9 871 0
870 9 -871 0
-871 -11 -872 0
-871 11 872 0
871 -11 872 0
871 11 -872 0
-872 -12 -873 0
-872 12 873 0
872 -12 873 0
872 12 -873 0
-873 -13 -874 0
-873 13 874 0
873 -13 874 0
873 13 -874 0
-874 -14 -875 0
-874 14 875 0
874 -14 875 0
874 14 -875 0
-875 -19 -876 0
-875 19 876 0
875 -19 876 0
875 19 -876 0
-876 -31 -877 0
-876 31 877 0
876 -31 877 0
876 31 -877 0
-877 -32 -878 0
-877 32 878 0
877 -32 878 0
877 32 -878 0
-878 -33 -879 0
-878 33 879 0
878 -33 879 0
878 33 -879 0
-879 -34 -880 0
-879 34 880 0
879 -34 880 0
879 34 -880 0
-880 -39 -881 0
-880 39 881 0
880 -39 881 0
880 39 -881 0
867 881 0
-2 -4 -882 0
-2 4 882 0
2 -4 882 0
2 4 -882 0
-882 -5 -883 0
-882 5 883 0
882 -5 883 0
882 5 -883 0
-883 -9 -884 0
-883 9 884 0
883 -9 884 0
883 9 -884 0
-884 -12 -885 0
-884 12 885 0
884 -12 885 0
884 12 -885 0
-885 -14 -886 0
-885 14 886 0
885 -14 886 0
885 14 -886 0
-886 -15 -887 0
-886 15 887 0
886 -15 887 0
886 15 -887 0
-887 -19 -888 0
-887 19 888 0
887 -19 888 0
887 19 -888 0
-888 -22 -889 0
-888 22 889 0
888 -22 889 0
888 22 -889 0
-889 -24 -890 0
-889 24 890 0
889 -24 890 0
889 24 -890 0
-890 -25 -891 0
-890 25 891 0
890 -25 891 0
890 25 -891 0
-891 -29 -892 0
-891 29 892 0
891 -29 892 0
891 29 -892 0
-32 -34 -893 0
-32 34 893 0
32 -34 893 0
32 34 -893 0
-893 -35 -894 0
-893 35 894 0
893 -35 894 0
893 35 -894 0
-894 -39 -895 0
-894 39 895 0
894 -39 895 0
894 39 -895 0
892 895 0
-11 -12 -896 0
-11 12 896 0
11 -12 896 0
11 12 -896 0
-896 -14 -897 0
-896 14 897 0
896 -14 897 0
896 14 -897 0
-897 -15 -898 0
-897 15 898 0
897 -15 898 0
897 15 -898 0
-898 -19 -899 0
-898 19 899 0
898 -19 899 0
898 19 -899 0
-899 -21 -900 0
-899 21 900 0
899 -21 900 0
899 21 -900 0
-900 -22 -901 0
-900 22 901 0
900 -22 901 0
900 22 -901 0
-901 -24 -902 0
-901 24 902 0
901 -24 902 0
901 24 -902 0
-902 -25 -903 0
-902 25 903 0
902 -25 903 0
902 25 -903 0
-903 -29 -904 0
-903 29 904 0
903 -29 904 0
903 29 -904 0
-11 -12 -905 0
-11 12 905 0
11 -12 905 0
11 12 -905 0
-905 -14 -906 0
-905 14 906 0
905 -14 906 0
905 14 -906 0
-906 -15 -907 0
-906 15 907 0
906 -15 907 0
906 15 -907 0
-907 -19 -908 0
-907 19 908 0
907 -19 908 0
907 19 -908 0
-908 -31 -909 0
-908 31 909 0
908 -31 909 0
908 31 -909 0
-909 -32 -910 0
-909 32 910 0
909 -32 910 0
909 32 -910 0
-910 -34 -911 0
-910 34 911 0
910 -34 911 0
910 34 -911 0
-911 -35 -912 0
-911 35 912 0
911 -35 912 0
911 35 -912 0
-912 -39 -913 0
-912 39 913 0
912 -39 913 0
912 39 -913 0
904 913 0
-2 -3 -914 0
-2 3 914 0
2 -3 914 0
2 3 -914 0
-914 -4 -915 0
-914 4 915 0
914 -4 915 0
914 4 -915 0
-915 -6 -916 0
-915 6 916 0
915 -6 916 0
915 6 -916 0
-916 -9 -917 0
-916 9 917 0
916 -9 917 0
916 9 -917 0
-917 -12 -918 0
-917 12 918 0
917 -12 918 0
917 12 -918 0
-918 -13 -919 0
-918 13 919 0
918 -13 919 0
918 13 -919 0
-919 -14 -920 0
-919 14 920 0
919 -14 920 0
919 14 -920 0
-920 -16 -921 0
-920 16 921 0
920 -16 921 0
920 16 -921 0
-921 -19 -922 0
-921 19 922 0
921 -19 922 0
921 19 -922 0
-922 -22 -923 0
-922 22 923 0
922 -22 923 0
922 22 -923 0
-923 -23 -924 0
-923 23 924 0
923 -23 924 0
923 23 -924 0
-924 -24 -925 0
-924 24 925 0
924 -24 925 0
924 24 -925 0
-925 -26 -926 0
-925 26 926 0
925 -26 926 0
925 26 -926 0
-926 -29 -927 0
-926 29 927 0
926 -29 927 0
926 29 -927 0
-2 -3 -928 0
-2 3 928 0
2 -3 928 0
2 3 -928 0
-928 -4 -929 0
-928 4 929 0
928 -4 929 0
928 4 -929 0
-929 -6 -930 0
-929 6 930 0
929 -6 930 0
929 6 -930 0
-930 -9 -931 0
-930 9 931 0
930 -9 931 0
930 9 -931 0
-931 -12 -932 0
-931 12 932 0
931 -12 932 0
931 12 -932 0
-932 -13 -933 0
-932 13 933 0
932 -13 933 0
932 13 -933 0
-933 -14 -934 0
-933 14 934 0
933 -14 934 0
933 14 -934 0
-934 -16 -935 0
-934 16 935 0
934 -16 935 0
934 16 -935 0
-935 -19 -936 0
-935 19 936 0
935 -19 936 0
935 19 -936 0
-936 -32 -937 0
-936 32 937 0
936 -32 937 0
936 32 -937 0
-937 -33 -938 0
-937 33 938 0
937 -33 938 0
937 33 -938 0
-938 -34 -939 0
-938 34 939 0
938 -34 939 0
938 34 -939 0
-939 -36 -940 0
-939 36 940 0
939 -36 940 0
939 36 -940 0
-940 -39 -941 0
-940 39 941 0
940 -39 941 0
940 39 -941 0
927 941 0
-21 -23 -942 0
-21 23 942 0
21 -23 942 0
21 23 -942 0
-942 -24 -943 0
-942 24 943 0
942 -24 943 0
942 24 -943 0
-943 -25 -944 0
-943 25 944 0
943 -25 944 0
943 25 -944 0
-944 -26 -945 0
-944 26 945 0
944 -26 945 0
944 26 -945 0
-945 -29 -946 0
-945 29 946 0
945 -29 946 0
945 29 -946 0
-31 -33 -947 0
-31 33 947 0
31 -33 947 0
31 33 -947 0
-947 -34 -948 0
-947 34 948 0
947 -34 948 0
947 34 -948 0
-948 -35 -949 0
-948 35 949 0
948 -35 949 0
948 35 -949 0
-949 -36 -950 0
-949 36 950 0
949 -36 950 0
949 36 -950 0
-950 -39 -951 0
-950 39 951 0
950 -39 951 0
950 39 -951 0
946 951 0
-12 -17 -952 0
-12 17 952 0
12 -17 952 0
12 17 -952 0
-952 -19 -953 0
-952 19 953 0
952 -19 953 0
952 19 -953 0
-953 -22 -954 0
-953 22 954 0
953 -22 954 0
953 22 -954 0
-954 -27 -955 0
-954 27 955 0
954 -27 955 0
954 27 -955 0
-955 -29 -956 0
-955 29 956 0
955 -29 956 0
955 29 -956 0
-2 -7 -957 0
-2 7 957 0
2 -7 957 0
2 7 -957 0
-957 -9 -958 0
-957 9 958 0
957 -9 958 0
957 9 -958 0
-958 -32 -959 0
-958 32 959 0
958 -32 959 0
958 32 -959 0
-959 -37 -960 0
-959 37 960 0
959 -37 960 0
959 37 -960 0
-960 -39 -961 0
-960 39 961 0
960 -39 961 0
960 39 -961 0
956 961 0
-1 -3 -962 0
-1 3 962 0
1 -3 962 0
1 3 -962 0
-962 -4 -963 0
-962 4 963 0
962 -4 963 0
962 4 -963 0
-963 -7 -964 0
-963 7 964 0
963 -7 964 0
963 7 -964 0
-964 -9 -965 0
-964 9 965 0
964 -9 965 0
964 9 -965 0
-965 -21 -966 0
-965 21 966 0
965 -21 966 0
965 21 -966 0
-966 -23 -967 0
-966 23 967 0
966 -23 967 0
966 23 -967 0
-967 -24 -968 0
-967 24 968 0
967 -24 968 0
967 24 -968 0
-968 -27 -969 0
-968 27 969 0
968 -27 969 0
968 27 -969 0
-969 -29 -970 0
-969 29 970 0
969 -29 970 0
969 29 -970 0
-1 -3 -971 0
-1 3 971 0
1 -3 971 0
1 3 -971 0
-971 -4 -972 0
-971 4 972 0
971 -4 972 0
971 4 -972 0
-972 -7 -973 0
-972 7 973 0
972 -7 973 0
972 7 -973 0
-973 -9 -974 0
-973 9 974 0
973 -9 974 0
973 9 -974 0
-974 -11 -975 0
-974 11 975 0
974 -11 975 0
974 11 -975 0
-975 -13 -976 0
-975 13 976 0
975 -13 976 0
975 13 -976 0
-976 -14 -977 0
-976 14 977 0
976 -14 977 0
976 14 -977 0
-977 -17 -978 0
-977 17 978 0
977 -17 978 0
977 17 -978 0
-978 -19 -979 0
-978 19 979 0
978 -19 979 0
978 19 -979 0
-979 -31 -980 0
-979 31 980 0
979 -31 980 0
979 31 -980 0
-980 -33 -981 0
-980 33 981 0
980 -33 981 0
980 33 -981 0
-981 -34 -982 0
-981 34 982 0
981 -34 982 0
981 34 -982 0
-982 -37 -983 0
-982 37 983 0
982 -37 983 0
982 37 -983 0
-983 -39 -984 0
-983 39 984 0
983 -39 984 0
983 39 -984 0
970 984 0
-3 -4 -985 0
-3 4 985 0
3 -4 985 0
3 4 -985 0
-985 -8 -986 0
-985 8 986 0
985 -8 986 0
985 8 -986 0
-986 -9 -987 0
-986 9 987 0
986 -9 987 0
986 9 -987 0
-987 -23 -988 0
-987 23 988 0
987 -23 988 0
987 23 -988 0
-988 -24 -989 0
-988 24 989 0
988 -24 989 0
988 24 -989 0
-989 -28 -990 0
-989 28 990 0
989 -28 990 0
989 28 -990 0
-990 -29 -991 0
-990 29 991 0
990 -29 991 0
990 29 -991 0
-13 -14 -992 0
-13 14 992 0
13 -14 992 0
13 14 -992 0
-992 -18 -993 0
-992 18 993 0
992 -18 993 0
992 18 -993 0
-993 -19 -994 0
-993 19 994 0
993 -19 994 0
993 19 -994 0
-994 -33 -995 0
-994 33 995 0
994 -33 995 0
994 33 -995 0
-995 -34 -996 0
-995 34 996 0
995 -34 996 0
995 34 -996 0
-996 -38 -997 0
-996 38 997 0
996 -38 997 0
996 38 -997 0
-997 -39 -998 0
-997 39 998 0
997 -39 998 0
997 39 -998 0
991 998 0
-3 -5 -999 0
-3 5 999 0
3 -5 999 0
3 5 -999 0
-999 -8 -1000 0
-999 8 1000 0
999 -8 1000 0
999 8 -1000 0
-1000 -9 -1001 0
-1000 9 1001 0
1000 -9 1001 0
1000 9 -1001 0
-1001 -13 -1002 0
-1001 13 1002 0
1001 -13 1002 0
1001 13 -1002 0
-1002 -15 -1003 0
-1002 15 1003 0
1002 -15 1003 0
1002 15 -1003 0
-1003 -18 -1004 0
-1003 18 1004 0
1003 -18 1004 0
1003 18 -1004 0
-1004 -19 -1005 0
-1004 19 1005 0
1004 -19 1005 0
1004 19 -1005 0
-1005 -23 -1006 0
-1005 23 1006 0
1005 -23 1006 0
1005 23 -1006 0
-1006 -25 -1007 0
-1006 25 1007 0
1006 -25 1007 0
1006 25 -1007 0
-1007 -28 -1008 0
-1007 28 1008 0
1007 -28 1008 0
1007 28 -1008 0
-1008 -29 -1009 0
-1008 29 1009 0
1008 -29 1009 0
1008 29 -1009 0
-13 -15 -1010 0
-13 15 1010 0
13 -15 1010 0
13 15 -1010 0
-1010 -18 -1011 0
-1010 18 1011 0
1010 -18 1011 0
1010 18 -1011 0
-1011 -19 -1012 0
-1011 19 1012 0
1011 -19 1012 0
1011 19 -1012 0
-1012 -33 -1013 0
-1012 33 1013 0
1012 -33 1013 0
1012 33 -1013 0
-1013 -35 -1014 0
-1013 35 1014 0
1013 -35 1014 0
1013 35 -1014 0
-1014 -38 -1015 0
-1014 38 1015 0
1014 -38 1015 0
1014 38 -1015 0
-1015 -39 -1016 0
-1015 39 1016 0
1015 -39 1016 0
1015 39 -1016 0
1009 1016 0
-12 -14 -1017 0
-12 14 1017 0
12 -14 1017 0
12 14 -1017 0
-1017 -16 -1018 0
-1017 16 1018 0
1017 -16 1018 0
1017 16 -1018 0
-1018 -18 -1019 0
-1018 18 1019 0
1018 -18 1019 0
1018 18 -1019 0
-1019 -19 -1020 0
-1019 19 1020 0
1019 -19 1020 0
1019 19 -1020 0
-1020 -22 -1021 0
-1020 22 1021 0
1020 -22 1021 0
1020 22 -1021 0
-1021 -24 -1022 0
-1021 24 1022 0
1021 -24 1022 0
1021 24 -1022 0
-1022 -26 -1023 0
-1022 26 1023 0
1022 -26 1023 0
1022 26 -1023 0
-1023 -28 -1024 0
-1023 28 1024 0
1023 -28 1024 0
1023 28 -1024 0
-1024 -29 -1025 0
-1024 29 1025 0
1024 -29 1025 0
1024 29 -1025 0
-2 -4 -1026 0
-2 4 1026 0
2 -4 1026 0
2 4 -1026 0
-1026 -6 -1027 0
-1026 6 1027 0
1026 -6 1027 0
1026 6 -1027 0
-1027 -8 -1028 0
-1027 8 1028 0
1027 -8 1028 0
1027 8 -1028 0
-1028 -9 -1029 0
-1028 9 1029 0
1028 -9 1029 0
1028 9 -1029 0
-1029 -12 -1030 0
-1029 12 1030 0
1029 -12 1030 0
1029 12 -1030 0
-1030 -14 -1031 0
-1030 14 1031 0
1030 -14 1031 0
1030 14 -1031 0
-1031 -16 -1032 0
-1031 16 1032 0
1031 -16 1032 0
1031 16 -1032 0
-1032 -18 -1033 0
-1032 18 1033 0
1032 -18 1033 0
1032 18 -1033 0
-1033 -19 -1034 0
-1033 19 1034 0
1033 -19 1034 0
1033 19 -1034 0
-1034 -32 -1035 0
-1034 32 1035 0
1034 -32 1035 0
1034 32 -1035 0
-1035 -34 -1036 0
-1035 34 1036 0
1035 -34 1036 0
1035 34 -1036 0
-1036 -36 -1037 0
-1036 36 1037 0
1036 -36 1037 0
1036 36 -1037 0
-1037 -38 -1038 0
-1037 38 1038 0
1037 -38 1038 0
1037 38 -1038 0
-1038 -39 -1039 0
-1038 39 1039 0
1038 -39 1039 0
1038 39 -1039 0
1025 1039 0
-1 -2 -1040 0
-1 2 1040 0
1 -2 1040 0
1 2 -1040 0
-1040 -4 -1041 0
-1040 4 1041 0
1040 -4 1041 0
1040 4 -1041 0
-1041 -5 -1042 0
-1041 5 1042 0
1041 -5 1042 0
1041 5 -1042 0
-1042 -6 -1043 0
-1042 6 1043 0
1042 -6 1043 0
1042 6 -1043 0
-1043 -8 -1044 0
-1043 8 1044 0
1043 -8 1044 0
1043 8 -1044 0
-1044 -9 -1045 0
-1044 9 1045 0
1044 -9 1045 0
1044 9 -1045 0
-1045 -11 -1046 0
-1045 11 1046 0
1045 -11 1046 0
1045 11 -1046 0
-1046 -12 -1047 0
-1046 12 1047 0
1046 -12 1047 0
1046 12 -1047 0
-1047 -14 -1048 0
-1047 14 1048 0
1047 -14 1048 0
1047 14 -1048 0
-1048 -15 -1049 0
-1048 15 1049 0
1048 -15 1049 0
1048 15 -1049 0
-1049 -16 -1050 0
-1049 16 1050 0
1049 -16 1050 0
1049 16 -1050 0
-1050 -18 -1051 0
-1050 18 1051 0
1050 -18 1051 0
1050 18 -1051 0
-1051 -19 -1052 0
-1051 19 1052 0
1051 -19 1052 0
1051 19 -1052 0
-1052 -21 -1053 0
-1052 21 1053 0
1052 -21 1053 0
1052 21 -1053 0
-1053 -22 -1054 0
-1053 22 1054 0
1053 -22 1054 0
1053 22 -1054 0
-1054 -24 -1055 0
-1054 24 1055 0
1054 -24 1055 0
1054 24 -1055 0
-1055 -25 -1056 0
-1055 25 1056 0
1055 -25 1056 0
1055 25 -1056 0
-1056 -26 -1057 0
-1056 26 1057 0
1056 -26 1057 0
1056 26 -1057 0
-1057 -28 -1058 0
-1057 28 1058 0
1057 -28 1058 0
1057 28 -1058 0
-1058 -29 -1059 0
-1058 29 1059 0
1058 -29 1059 0
1058 29 -1059 0
-1 -2 -1060 0
-1 2 1060 0
1 -2 1060 0
1 2 -1060 0
-1060 -4 -1061 0
-1060 4 1061 0
1060 -4 1061 0
1060 4 -1061 0
-1061 -5 -1062 0
-1061 5 1062 0
1061 -5 1062 0
1061 5 -1062 0
-1062 -6 -1063 0
-1062 6 1063 0
1062 -6 1063 0
1062 6 -1063 0
-1063 -8 -1064 0
-1063 8 1064 0
1063 -8 1064 0
1063 8 -1064 0
-1064 -9 -1065 0
-1064 9 1065 0
1064 -9 1065 0
1064 9 -1065 0
-1065 -31 -1066 0
-1065 31 1066 0
1065 -31 1066 0
1065 31 -1066 0
-1066 -32 -1067 0
-1066 32 1067 0
1066 -32 1067 0
1066 32 -1067 0
-1067 -34 -1068 0
-1067 34 1068 0
1067 -34 1068 0
1067 34 -1068 0
-1068 -35 -1069 0
-1068 35 1069 0
1068 -35 1069 0
1068 35 -1069 0
-1069 -36 -1070 0
-1069 36 1070 0
1069 -36 1070 0
1069 36 -1070 0
-1070 -38 -1071 0
-1070 38 1071 0
1070 -38 1071 0
1070 38 -1071 0
-1071 -39 -1072 0
-1071 39 1072 0
1071 -39 1072 0
1071 39 -1072 0
1059 1072 0
-21 -22 -1073 0
-21 22 1073 0
21 -22 1073 0
21 22 -1073 0
-1073 -23 -1074 0
-1073 23 1074 0
1073 -23 1074 0
1073 23 -1074 0
-1074 -27 -1075 0
-1074 27 1075 0
1074 -27 1075 0
1074 27 -1075 0
-1075 -28 -1076 0
-1075 28 1076 0
1075 -28 1076 0
1075 28 -1076 0
-1076 -29 -1077 0
-1076 29 1077 0
1076 -29 1077 0
1076 29 -1077 0
-11 -12 -1078 0
-11 12 1078 0
11 -12 1078 0
11 12 -1078 0
-1078 -13 -1079 0
-1078 13 1079 0
1078 -13 1079 0
1078 13 -1079 0
-1079 -17 -1080 0
-1079 17 1080 0
1079 -17 1080 0
1079 17 -1080 0
-1080 -18 -1081 0
-1080 18 1081 0
1080 -18 1081 0
1080 18 -1081 0
-1081 -19 -1082 0
-1081 19 1082 0
1081 -19 1082 0
1081 19 -1082 0
-1082 -31 -1083 0
-1082 31 1083 0
1082 -31 1083 0
1082 31 -1083 0
-1083 -32 -1084 0
-1083 32 1084 0
1083 -32 1084 0
1083 32 -1084 0
-1084 -33 -1085 0
-1084 33 1085 0
1084 -33 1085 0
1084 33 -1085 0
-1085 -37 -1086 0
-1085 37 1086 0
1085 -37 1086 0
1085 37 -1086 0
-1086 -38 -1087 0
-1086 38 1087 0
1086 -38 1087 0
1086 38 -1087 0
-1087 -39 -1088 0
-1087 39 1088 0
1087 -39 1088 0
1087 39 -1088 0
1077 1088 0
-2 -3 -1089 0
-2 3 1089 0
2 -3 1089 0
2 3 -1089 0
-1089 -5 -1090 0
-1089 5 1090 0
1089 -5 1090 0
1089 5 -1090 0
-1090 -7 -1091 0
-1090 7 1091 0
1090 -7 1091 0
1090 7 -1091 0
-1091 -8 -1092 0
-1091 8 1092 0
1091 -8 1092 0
1091 8 -1092 0
-1092 -9 -1093 0
-1092 9 1093 0
1092 -9 1093 0
1092 9 -1093 0
-1093 -22 -1094 0
-1093 22 1094 0
1093 -22 1094 0
1093 22 -1094 0
-1094 -23 -1095 0
-1094 23 1095 0
1094 -23 1095 0
1094 23 -1095 0
-1095 -25 -1096 0
-1095 25 1096 0
1095 -25 1096 0
1095 25 -1096 0
-1096 -27 -1097 0
-1096 27 1097 0
1096 -27 1097 0
1096 27 -1097 0
-1097 -28 -1098 0
-1097 28 1098 0
1097 -28 1098 0
1097 28 -1098 0
-1098 -29 -1099 0
-1098 29 1099 0
1098 -29 1099 0
1098 29 -1099 0
-2 -3 -1100 0
-2 3 1100 0
2 -3 1100 0
2 3 -1100 0
-1100 -5 -1101 0
-1100 5 1101 0
1100 -5 1101 0
1100 5 -1101 0
-1101 -7 -1102 0
-1101 7 1102 0
1101 -7 1102 0
1101 7 -1102 0
-1102 -8 -1103 0
-1102 8 1103 0
1102 -8 1103 0
1102 8 -1103 0
-1103 -9 -1104 0
-1103 9 1104 0
1103 -9 1104 0
1103 9 -1104 0
-1104 -32 -1105 0
-1104 32 1105 0
1104 -32 1105 0
1104 32 -1105 0
-1105 -33 -1106 0
-1105 33 1106 0
1105 -33 1106 0
1105 33 -1106 0
-1106 -35 -1107 0
-1106 35 1107 0
1106 -35 1107 0
1106 35 -1107 0
-1107 -37 -1108 0
-1107 37 1108 0
1107 -37 1108 0
1107 37 -1108 0
-1108 -38 -1109 0
-1108 38 1109 0
1108 -38 1109 0
1108 38 -1109 0
-1109 -39 -1110 0
-1109 39 1110 0
1109 -39 1110 0
1109 39 -1110 0
1099 1110 0
-11 -14 -1111 0
-11 14 1111 0
11 -14 1111 0
11 14 -1111 0
-1111 -16 -1112 0
-1111 16 1112 0
1111 -16 1112 0
1111 16 -1112 0
-1112 -17 -1113 0
-1112 17 1113 0
1112 -17 1113 0
1112 17 -1113 0
-1113 -18 -1114 0
-1113 18 1114 0
1113 -18 1114 0
1113 18 -1114 0
-1114 -19 -1115 0
-1114 19 1115 0
1114 -19 1115 0
1114 19 -1115 0
-1115 -21 -1116 0
-1115 21 1116 0
1115 -21 1116 0
1115 21 -1116 0
-1116 -24 -1117 0
-1116 24 1117 0
1116 -24 1117 0
1116 24 -1117 0
-1117 -26 -1118 0
-1117 26 1118 0
1117 -26 1118 0
1117 26 -1118 0
-1118 -27 -1119 0
-1118 27 1119 0
1118 -27 1119 0
1118 27 -1119 0
-1119 -28 -1120 0
-1119 28 1120 0
1119 -28 1120 0
1119 28 -1120 0
-1120 -29 -1121 0
-1120 29 1121 0
1120 -29 1121 0
1120 29 -1121 0
-31 -34 -1122 0
-31 34 1122 0
31 -34 1122 0
31 34 -1122 0
-1122 -36 -1123 0
-1122 36 1123 0
1122 -36 1123 0
1122 36 -1123 0
-1123 -37 -1124 0
-1123 37 1124 0
1123 -37 1124 0
1123 37 -1124 0
-1124 -38 -1125 0
-1124 38 1125 0
1124 -38 1125 0
1124 38 -1125 0
-1125 -39 -1126 0
-1125 39 1126 0
1125 -39 1126 0
1125 39 -1126 0
1121 1126 0
-23 -24 -1127 0
-23 24 1127 0
23 -24 1127 0
23 24 -1127 0
-1127 -26 -1128 0
-1127 26 1128 0
1127 -26 1128 0
1127 26 -1128 0
-1128 -27 -1129 0
-1128 27 1129 0
1128 -27 1129 0
1128 27 -1129 0
-1129 -28 -1130 0
-1129 28 1130 0
1129 -28 1130 0
1129 28 -1130 0
-1130 -29 -1131 0
-1130 29 1131 0
1130 -29 1131 0
1130 29 -1131 0
-3 -4 -1132 0
-3 4 1132 0
3 -4 1132 0
3 4 -1132 0
-1132 -6 -1133 0
-1132 6 1133 0
1132 -6 1133 0
1132 6 -1133 0
-1133 -7 -1134 0
-1133 7 1134 0
1133 -7 1134 0
1133 7 -1134 0
-1134 -8 -1135 0
-1134 8 1135 0
1134 -8 1135 0
1134 8 -1135 0
-1135 -9 -1136 0
-1135 9 1136 0
1135 -9 1136 0
1135 9 -1136 0
-1136 -33 -1137 0
-1136 33 1137 0
1136 -33 1137 0
1136 33 -1137 0
-1137 -34 -1138 0
-1137 34 1138 0
1137 -34 1138 0
1137 34 -1138 0
-1138 -36 -1139 0
-1138 36 1139 0
1138 -36 1139 0
1138 36 -1139 0
-1139 -37 -1140 0
-1139 37 1140 0
1139 -37 1140 0
1139 37 -1140 0
-1140 -38 -1141 0
-1140 38 1141 0
1140 -38 1141 0
1140 38 -1141 0
-1141 -39 -1142 0
-1141 39 1142 0
1141 -39 1142 0
1141 39 -1142 0
1131 1142 0
-22 -30 -1143 0
-22 30 1143 0
22 -30 1143 0
22 30 -1143 0
-2 -10 -1144 0
-2 10 1144 0
2 -10 1144 0
2 10 -1144 0
-1144 -12 -1145 0
-1144 12 1145 0
1144 -12 1145 0
1144 12 -1145 0
-1145 -20 -1146 0
-1145 20 1146 0
1145 -20 1146 0
1145 20 -1146 0
-1146 -32 -1147 0
-1146 32 1147 0
1146 -32 1147 0
1146 32 -1147 0
-1147 -40 -1148 0
-1147 40 1148 0
1147 -40 1148 0
1147 40 -1148 0
1143 1148 0
-1 -4 -1149 0
-1 4 1149 0
1 -4 1149 0
1 4 -1149 0
-1149 -10 -1150 0
-1149 10 1150 0
1149 -10 1150 0
1149 10 -1150 0
-1150 -21 -1151 0
-1150 21 1151 0
1150 -21 1151 0
1150 21 -1151 0
-1151 -24 -1152 0
-1151 24 1152 0
1151 -24 1152 0
1151 24 -1152 0
-1152 -30 -1153 0
-1152 30 1153 0
1152 -30 1153 0
1152 30 -1153 0
-31 -34 -1154 0
-31 34 1154 0
31 -34 1154 0
31 34 -1154 0
-1154 -40 -1155 0
-1154 40 1155 0
1154 -40 1155 0
1154 40 -1155 0
1153 1155 0
-1 -5 -1156 0
-1 5 1156 0
1 -5 1156 0
1 5 -1156 0
-1156 -10 -1157 0
-1156 10 1157 0
1156 -10 1157 0
1156 10 -1157 0
-1157 -11 -1158 0
-1157 11 1158 0
1157 -11 1158 0
1157 11 -1158 0
-1158 -15 -1159 0
-1158 15 1159 0
1158 -15 1159 0
1158 15 -1159 0
-1159 -20 -1160 0
-1159 20 1160 0
1159 -20 1160 0
1159 20 -1160 0
-1160 -21 -1161 0
-1160 21 1161 0
1160 -21 1161 0
1160 21 -1161 0
-1161 -25 -1162 0
-1161 25 1162 0
1161 -25 1162 0
1161 25 -1162 0
-1162 -30 -1163 0
-1162 30 1163 0
1162 -30 1163 0
1162 30 -1163 0
-1 -5 -1164 0
-1 5 1164 0
1 -5 1164 0
1 5 -1164 0
-1164 -10 -1165 0
-1164 10 1165 0
1164 -10 1165 0
1164 10 -1165 0
-1165 -31 -1166 0
-1165 31 1166 0
1165 -31 1166 0
1165 31 -1166 0
-1166 -35 -1167 0
-1166 35 1167 0
1166 -35 1167 0
1166 35 -1167 0
-1167 -40 -1168 0
-1167 40 1168 0
1167 -40 1168 0
1167 40 -1168 0
1163 1168 0
-11 -13 -1169 0
-11 13 1169 0
11 -13 1169 0
11 13 -1169 0
-1169 -14 -1170 0
-1169 14 1170 0
1169 -14 1170 0
1169 14 -1170 0
-1170 -15 -1171 0
-1170 15 1171 0
1170 -15 1171 0
1170 15 -1171 0
-1171 -16 -1172 0
-1171 16 1172 0
1171 -16 1172 0
1171 16 -1172 0
-1172 -20 -1173 0
-1172 20 1173 0
1172 -20 1173 0
1172 20 -1173 0
-1173 -21 -1174 0
-1173 21 1174 0
1173 -21 1174 0
1173 21 -1174 0
-1174 -23 -1175 0
-1174 23 1175 0
1174 -23 1175 0
1174 23 -1175 0
-1175 -24 -1176 0
-1175 24 1176 0
1175 -24 1176 0
1175 24 -1176 0
-1176 -25 -1177 0
-1176 25 1177 0
1176 -25 1177 0
1176 25 -1177 0
-1177 -26 -1178 0
-1177 26 1178 0
1177 -26 1178 0
1177 26 -1178 0
-1178 -30 -1179 0
-1178 30 1179 0
1178 -30 1179 0
1178 30 -1179 0
-1 -3 -1180 0
-1 3 1180 0
1 -3 1180 0
1 3 -1180 0
-1180 -4 -1181 0
-1180 4 1181 0
1180 -4 1181 0
1180 4 -1181 0
-1181 -5 -1182 0
-1181 5 1182 0
1181 -5 1182 0
1181 5 -1182 0
-1182 -6 -1183 0
-1182 6 1183 0
1182 -6 1183 0
1182 6 -1183 0
-1183 -10 -1184 0
-1183 10 1184 0
1183 -10 1184 0
1183 10 -1184 0
-1184 -31 -1185 0
-1184 31 1185 0
1184 -31 1185 0
1184 31 -1185 0
-1185 -33 -1186 0
-1185 33 1186 0
1185 -33 1186 0
1185 33 -1186 0
-1186 -34 -1187 0
-1186 34 1187 0
1186 -34 1187 0
1186 34 -1187 0
-1187 -35 -1188 0
-1187 35 1188 0
1187 -35 1188 0
1187 35 -1188 0
-1188 -36 -1189 0
-1188 36 1189 0
1188 -36 1189 0
1188 36 -1189 0
-1189 -40 -1190 0
-1189 40 1190 0
1189 -40 1190 0
1189 40 -1190 0
1179 1190 0
-1 -2 -1191 0
-1 2 1191 0
1 -2 1191 0
1 2 -1191 0
-1191 -3 -1192 0
-1191 3 1192 0
1191 -3 1192 0
1191 3 -1192 0
-1192 -4 -1193 0
-1192 4 1193 0
1192 -4 1193 0
1192 4 -1193 0
-1193 -5 -1194 0
-1193 5 1194 0
1193 -5 1194 0
1193 5 -1194 0
-1194 -6 -1195 0
-1194 6 1195 0
1194 -6 1195 0
1194 6 -1195 0
-1195 -10 -1196 0
-1195 10 1196 0
1195 -10 1196 0
1195 10 -1196 0
-1196 -21 -1197 0
-1196 21 1197 0
1196 -21 1197 0
1196 21 -1197 0
-1197 -22 -1198 0
-1197 22 1198 0
1197 -22 1198 0
1197 22 -1198 0
-1198 -23 -1199 0
-1198 23 1199 0
1198 -23 1199 0
1198 23 -1199 0
-1199 -24 -1200 0
-1199 24 1200 0
1199 -24 1200 0
1199 24 -1200 0
-1200 -25 -1201 0
-1200 25 1201 0
1200 -25 1201 0
1200 25 -1201 0
-1201 -26 -1202 0
-1201 26 1202 0
1201 -26 1202 0
1201 26 -1202 0
-1202 -30 -1203 0
-1202 30 1203 0
1202 -30 1203 0
1202 30 -1203 0
-1 -2 -1204 0
-1 2 1204 0
1 -2 1204 0
1 2 -1204 0
-1204 -3 -1205 0
-1204 3 1205 0
1204 -3 1205 0
1204 3 -1205 0
-1205 -4 -1206 0
-1205 4 1206 0
1205 -4 1206 0
1205 4 -1206 0
-1206 -5 -1207 0
-1206 5 1207 0
1206 -5 1207 0
1206 5 -1207 0
-1207 -6 -1208 0
-1207 6 1208 0
1207 -6 1208 0
1207 6 -1208 0
-1208 -10 -1209 0
-1208 10 1209 0
1208 -10 1209 0
1208 10 -1209 0
-1209 -11 -1210 0
-1209 11 1210 0
1209 -11 1210 0
1209 11 -1210 0
-1210 -12 -1211 0
-1210 12 1211 0
1210 -12 1211 0
1210 12 -1211 0
-1211 -13 -1212 0
-1211 13 1212 0
1211 -13 1212 0
1211 13 -1212 0
-1212 -14 -1213 0
-1212 14 1213 0
1212 -14 1213 0
1212 14 -1213 0
-1213 -15 -1214 0
-1213 15 1214 0
1213 -15 1214 0
1213 15 -1214 0
-1214 -16 -1215 0
-1214 16 1215 0
1214 -16 1215 0
1214 16 -1215 0
-1215 -20 -1216 0
-1215 20 1216 0
1215 -20 1216 0
1215 20 -1216 0
-1216 -31 -1217 0
-1216 31 1217 0
1216 -31 1217 0
1216 31 -1217 0
-1217 -32 -1218 0
-1217 32 1218 0
1217 -32 1218 0
1217 32 -1218 0
-1218 -33 -1219 0
-1218 33 1219 0
1218 -33 1219 0
1218 33 -1219 0
-1219 -34 -1220 0
-1219 34 1220 0
1219 -34 1220 0
1219 34 -1220 0
-1220 -35 -1221 0
-1220 35 1221 0
1220 -35 1221 0
1220 35 -1221 0
-1221 -36 -1222 0
-1221 36 1222 0
1221 -36 1222 0
1221 36 -1222 0
-1222 -40 -1223 0
-1222 40 1223 0
1222 -40 1223 0
1222 40 -1223 0
1203 1223 0
-23 -25 -1224 0
-23 25 1224 0
23 -25 1224 0
23 25 -1224 0
-1224 -27 -1225 0
-1224 27 1225 0
1224 -27 1225 0
1224 27 -1225 0
-1225 -30 -1226 0
-1225 30 1226 0
1225 -30 1226 0
1225 30 -1226 0
-13 -15 -1227 0
-13 15 1227 0
13 -15 1227 0
13 15 -1227 0
-1227 -17 -1228 0
-1227 17 1228 0
1227 -17 1228 0
1227 17 -1228 0
-1228 -20 -1229 0
-1228 20 1229 0
1228 -20 1229 0
1228 20 -1229 0
-1229 -33 -1230 0
-1229 33 1230 0
1229 -33 1230 0
1229 33 -1230 0
-1230 -35 -1231 0
-1230 35 1231 0
1230 -35 1231 0
1230 35 -1231 0
-1231 -37 -1232 0
-1231 37 1232 0
1231 -37 1232 0
1231 37 -1232 0
-1232 -40 -1233 0
-1232 40 1233 0
1232 -40 1233 0
1232 40 -1233 0
1226 1233 0
-1 -3 -1234 0
-1 3 1234 0
1 -3 1234 0
1 3 -1234 0
-1234 -6 -1235 0
-1234 6 1235 0
1234 -6 1235 0
1234 6 -1235 0
-1235 -7 -1236 0
-1235 7 1236 0
1235 -7 1236 0
1235 7 -1236 0
-1236 -10 -1237 0
-1236 10 1237 0
1236 -10 1237 0
1236 10 -1237 0
-1237 -21 -1238 0
-1237 21 1238 0
1237 -21 1238 0
1237 21 -1238 0
-1238 -23 -1239 0
-1238 23 1239 0
1238 -23 1239 0
1238 23 -1239 0
-1239 -26 -1240 0
-1239 26 1240 0
1239 -26 1240 0
1239 26 -1240 0
-1240 -27 -1241 0
-1240 27 1241 0
1240 -27 1241 0
1240 27 -1241 0
-1241 -30 -1242 0
-1241 30 1242 0
1241 -30 1242 0
1241 30 -1242 0
-11 -13 -1243 0
-11 13 1243 0
11 -13 1243 0
11 13 -1243 0
-1243 -16 -1244 0
-1243 16 1244 0
1243 -16 1244 0
1243 16 -1244 0
-1244 -17 -1245 0
-1244 17 1245 0
1244 -17 1245 0
1244 17 -1245 0
-1245 -20 -1246 0
-1245 20 1246 0
1245 -20 1246 0
1245 20 -1246 0
-1246 -31 -1247 0
-1246 31 1247 0
1246 -31 1247 0
1246 31 -1247 0
-1247 -33 -1248 0
-1247 33 1248 0
1247 -33 1248 0
1247 33 -1248 0
-1248 -36 -1249 0
-1248 36 1249 0
1248 -36 1249 0
1248 36 -1249 0
-1249 -37 -1250 0
-1249 37 1250 0
1249 -37 1250 0
1249 37 -1250 0
-1250 -40 -1251 0
-1250 40 1251 0
1250 -40 1251 0
1250 40 -1251 0
1242 1251 0
-21 -22 -1252 0
-21 22 1252 0
21 -22 1252 0
21 22 -1252 0
-1252 -23 -1253 0
-1252 23 1253 0
1252 -23 1253 0
1252 23 -1253 0
-1253 -24 -1254 0
-1253 24 1254 0
1253 -24 1254 0
1253 24 -1254 0
-1254 -25 -1255 0
-1254 25 1255 0
1254 -25 1255 0
1254 25 -1255 0
-1255 -26 -1256 0
-1255 26 1256 0
1255 -26 1256 0
1255 26 -1256 0
-1256 -27 -1257 0
-1256 27 1257 0
1256 -27 1257 0
1256 27 -1257 0
-1257 -30 -1258 0
-1257 30 1258 0
1257 -30 1258 0
1257 30 -1258 0
-31 -32 -1259 0
-31 32 1259 0
31 -32 1259 0
31 32 -1259 0
-1259 -33 -1260 0
-1259 33 1260 0
1259 -33 1260 0
1259 33 -1260 0
-1260 -34 -1261 0
-1260 34 1261 0
1260 -34 1261 0
1260 34 -1261 0
-1261 -35 -1262 0
-1261 35 1262 0
1261 -35 1262 0
1261 35 -1262 0
-1262 -36 -1263 0
-1262 36 1263 0
1262 -36 1263 0
1262 36 -1263 0
-1263 -37 -1264 0
-1263 37 1264 0
1263 -37 1264 0
1263 37 -1264 0
-1264 -40 -1265 0
-1264 40 1265 0
1264 -40 1265 0
1264 40 -1265 0
1258 1265 0
-21 -23 -1266 0
-21 23 1266 0
21 -23 1266 0
21 23 -1266 0
-1266 -28 -1267 0
-1266 28 1267 0
1266 -28 1267 0
1266 28 -1267 0
-1267 -30 -1268 0
-1267 30 1268 0
1267 -30 1268 0
1267 30 -1268 0
-1 -3 -1269 0
-1 3 1269 0
1 -3 1269 0
1 3 -1269 0
-1269 -8 -1270 0
-1269 8 1270 0
1269 -8 1270 0
1269 8 -1270 0
-1270 -10 -1271 0
-1270 10 1271 0
1270 -10 1271 0
1270 10 -1271 0
-1271 -31 -1272 0
-1271 31 1272 0
1271 -31 1272 0
1271 31 -1272 0
-1272 -33 -1273 0
-1272 33 1273 0
1272 -33 1273 0
1272 33 -1273 0
-1273 -38 -1274 0
-1273 38 1274 0
1273 -38 1274 0
1273 38 -1274 0
-1274 -40 -1275 0
-1274 40 1275 0
1274 -40 1275 0
1274 40 -1275 0
1268 1275 0
-13 -14 -1276 0
-13 14 1276 0
13 -14 1276 0
13 14 -1276 0
-1276 -18 -1277 0
-1276 18 1277 0
1276 -18 1277 0
1276 18 -1277 0
-1277 -20 -1278 0
-1277 20 1278 0
1277 -20 1278 0
1277 20 -1278 0
-1278 -23 -1279 0
-1278 23 1279 0
1278 -23 1279 0
1278 23 -1279 0
-1279 -24 -1280 0
-1279 24 1280 0
1279 -24 1280 0
1279 24 -1280 0
-1280 -28 -1281 0
-1280 28 1281 0
1280 -28 1281 0
1280 28 -1281 0
-1281 -30 -1282 0
-1281 30 1282 0
1281 -30 1282 0
1281 30 -1282 0
-33 -34 -1283 0
-33 34 1283 0
33 -34 1283 0
33 34 -1283 0
-1283 -38 -1284 0
-1283 38 1284 0
1283 -38 1284 0
1283 38 -1284 0
-1284 -40 -1285 0
-1284 40 1285 0
1284 -40 1285 0
1284 40 -1285 0
1282 1285 0
-11 -16 -1286 0
-11 16 1286 0
11 -16 1286 0
11 16 -1286 0
-1286 -18 -1287 0
-1286 18 1287 0
1286 -18 1287 0
1286 18 -1287 0
-1287 -20 -1288 0
-1287 20 1288 0
1287 -20 1288 0
1287 20 -1288 0
-1288 -21 -1289 0
-1288 21 1289 0
1288 -21 1289 0
1288 21 -1289 0
-1289 -26 -1290 0
-1289 26 1290 0
1289 -26 1290 0
1289 26 -1290 0
-1290 -28 -1291 0
-1290 28 1291 0
1290 -28 1291 0
1290 28 -1291 0
-1291 -30 -1292 0
-1291 30 1292 0
1291 -30 1292 0
1291 30 -1292 0
-11 -16 -1293 0
-11 16 1293 0
11 -16 1293 0
11 16 -1293 0
-1293 -18 -1294 0
-1293 18 1294 0
1293 -18 1294 0
1293 18 -1294 0
-1294 -20 -1295 0
-1294 20 1295 0
1294 -20 1295 0
1294 20 -1295 0
-1295 -31 -1296 0
-1295 31 1296 0
1295 -31 1296 0
1295 31 -1296 0
-1296 -36 -1297 0
-1296 36 1297 0
1296 -36 1297 0
1296 36 -1297 0
-1297 -38 -1298 0
-1297 38 1298 0
1297 -38 1298 0
1297 38 -1298 0
-1298 -40 -1299 0
-1298 40 1299 0
1298 -40 1299 0
1298 40 -1299 0
1292 1299 0
-1 -2 -1300 0
-1 2 1300 0
1 -2 1300 0
1 2 -1300 0
-1300 -4 -1301 0
-1300 4 1301 0
1300 -4 1301 0
1300 4 -1301 0
-1301 -6 -1302 0
-1301 6 1302 0
1301 -6 1302 0
1301 6 -1302 0
-1302 -8 -1303 0
-1302 8 1303 0
1302 -8 1303 0
1302 8 -1303 0
-1303 -10 -1304 0
-1303 10 1304 0
1303 -10 1304 0
1303 10 -1304 0
-1304 -11 -1305 0
-1304 11 1305 0
1304 -11 1305 0
1304 11 -1305 0
-1305 -12 -1306 0
-1305 12 1306 0
1305 -12 1306 0
1305 12 -1306 0
-1306 -14 -1307 0
-1306 14 1307 0
1306 -14 1307 0
1306 14 -1307 0
-1307 -16 -1308 0
-1307 16 1308 0
1307 -16 1308 0
1307 16 -1308 0
-1308 -18 -1309 0
-1308 18 1309 0
1308 -18 1309 0
1308 18 -1309 0
-1309 -20 -1310 0
-1309 20 1310 0
1309 -20 1310 0
1309 20 -1310 0
-1310 -21 -1311 0
-1310 21 1311 0
1310 -21 1311 0
1310 21 -1311 0
-1311 -22 -1312 0
-1311 22 1312 0
1311 -22 1312 0
1311 22 -1312 0
-1312 -24 -1313 0
-1312 24 1313 0
1312 -24 1313 0
1312 24 -1313 0
-1313 -26 -1314 0
-1313 26 1314 0
1313 -26 1314 0
1313 26 -1314 0
-1314 -28 -1315 0
-1314 28 1315 0
1314 -28 1315 0
1314 28 -1315 0
-1315 -30 -1316 0
-1315 30 1316 0
1315 -30 1316 0
1315 30 -1316 0
-31 -32 -1317 0
-31 32 1317 0
31 -32 1317 0
31 32 -1317 0
-1317 -34 -1318 0
-1317 34 1318 0
1317 -34 1318 0
1317 34 -1318 0
-1318 -36 -1319 0
-1318 36 1319 0
1318 -36 1319 0
1318 36 -1319 0
-1319 -38 -1320 0
-1319 38 1320 0
1319 -38 1320 0
1319 38 -1320 0
-1320 -40 -1321 0
-1320 40 1321 0
1320 -40 1321 0
1320 40 -1321 0
1316 1321 0
-11 -12 -1322 0
-11 12 1322 0
11 -12 1322 0
11 12 -1322 0
-1322 -14 -1323 0
-1322 14 1323 0
1322 -14 1323 0
1322 14 -1323 0
-1323 -15 -1324 0
-1323 15 1324 0
1323 -15 1324 0
1323 15 -1324 0
-1324 -16 -1325 0
-1324 16 1325 0
1324 -16 1325 0
1324 16 -1325 0
-1325 -18 -1326 0
-1325 18 1326 0
1325 -18 1326 0
1325 18 -1326 0
-1326 -20 -1327 0
-1326 20 1327 0
1326 -20 1327 0
1326 20 -1327 0
-1327 -21 -1328 0
-1327 21 1328 0
1327 -21 1328 0
1327 21 -1328 0
-1328 -22 -1329 0
-1328 22 1329 0
1328 -22 1329 0
1328 22 -1329 0
-1329 -24 -1330 0
-1329 24 1330 0
1329 -24 1330 0
1329 24 -1330 0
-1330 -25 -1331 0
-1330 25 1331 0
1330 -25 1331 0
1330 25 -1331 0
-1331 -26 -1332 0
-1331 26 1332 0
1331 -26 1332 0
1331 26 -1332 0
-1332 -28 -1333 0
-1332 28 1333 0
1332 -28 1333 0
1332 28 -1333 0
-1333 -30 -1334 0
-1333 30 1334 0
1333 -30 1334 0
1333 30 -1334 0
-1 -2 -1335 0
-1 2 1335 0
1 -2 1335 0
1 2 -1335 0
-1335 -4 -1336 0
-1335 4 1336 0
1335 -4 1336 0
1335 4 -1336 0
-1336 -5 -1337 0
-1336 5 1337 0
1336 -5 1337 0
1336 5 -1337 0
-1337 -6 -1338 0
-1337 6 1338 0
1337 -6 1338 0
1337 6 -1338 0
-1338 -8 -1339 0
-1338 8 1339 0
1338 -8 1339 0
1338 8 -1339 0
-1339 -10 -1340 0
-1339 10 1340 0
1339 -10 1340 0
1339 10 -1340 0
-1340 -11 -1341 0
-1340 11 1341 0
1340 -11 1341 0
1340 11 -1341 0
-1341 -12 -1342 0
-1341 12 1342 0
1341 -12 1342 0
1341 12 -1342 0
-1342 -14 -1343 0
-1342 14 1343 0
1342 -14 1343 0
1342 14 -1343 0
-1343 -15 -1344 0
-1343 15 1344 0
1343 -15 1344 0
1343 15 -1344 0
-1344 -16 -1345 0
-1344 16 1345 0
1344 -16 1345 0
1344 16 -1345 0
-1345 -18 -1346 0
-1345 18 1346 0
1345 -18 1346 0
1345 18 -1346 0
-1346 -20 -1347 0
-1346 20 1347 0
1346 -20 1347 0
1346 20 -1347 0
-1347 -31 -1348 0
-1347 31 1348 0
1347 -31 1348 0
1347 31 -1348 0
-1348 -32 -1349 0
-1348 32 1349 0
1348 -32 1349 0
1348 32 -1349 0
-1349 -34 -1350 0
-1349 34 1350 0
1349 -34 1350 0
1349 34 -1350 0
-1350 -35 -1351 0
-1350 35 1351 0
1350 -35 1351 0
1350 35 -1351 0
-1351 -36 -1352 0
-1351 36 1352 0
1351 -36 1352 0
1351 36 -1352 0
-1352 -38 -1353 0
-1352 38 1353 0
1352 -38 1353 0
1352 38 -1353 0
-1353 -40 -1354 0
-1353 40 1354 0
1353 -40 1354 0
1353 40 -1354 0
1334 1354 0
-1 -2 -1355 0
-1 2 1355 0
1 -2 1355 0
1 2 -1355 0
-1355 -7 -1356 0
-1355 7 1356 0
1355 -7 1356 0
1355 7 -1356 0
-1356 -8 -1357 0
-1356 8 1357 0
1356 -8 1357 0
1356 8 -1357 0
-1357 -10 -1358 0
-1357 10 1358 0
1357 -10 1358 0
1357 10 -1358 0
-1358 -11 -1359 0
-1358 11 1359 0
1358 -11 1359 0
1358 11 -1359 0
-1359 -12 -1360 0
-1359 12 1360 0
1359 -12 1360 0
1359 12 -1360 0
-1360 -17 -1361 0
-1360 17 1361 0
1360 -17 1361 0
1360 17 -1361 0
-1361 -18 -1362 0
-1361 18 1362 0
1361 -18 1362 0
1361 18 -1362 0
-1362 -20 -1363 0
-1362 20 1363 0
1362 -20 1363 0
1362 20 -1363 0
-1363 -21 -1364 0
-1363 21 1364 0
1363 -21 1364 0
1363 21 -1364 0
-1364 -22 -1365 0
-1364 22 1365 0
1364 -22 1365 0
1364 22 -1365 0
-1365 -27 -1366 0
-1365 27 1366 0
1365 -27 1366 0
1365 27 -1366 0
-1366 -28 -1367 0
-1366 28 1367 0
1366 -28 1367 0
1366 28 -1367 0
-1367 -30 -1368 0
-1367 30 1368 0
1367 -30 1368 0
1367 30 -1368 0
-11 -12 -1369 0
-11 12 1369 0
11 -12 1369 0
11 12 -1369 0
-1369 -17 -1370 0
-1369 17 1370 0
1369 -17 1370 0
1369 17 -1370 0
-1370 -18 -1371 0
-1370 18 1371 0
1370 -18 1371 0
1370 18 -1371 0
-1371 -20 -1372 0
-1371 20 1372 0
1371 -20 1372 0
1371 20 -1372 0
-1372 -31 -1373 0
-1372 31 1373 0
1372 -31 1373 0
1372 31 -1373 0
-1373 -32 -1374 0
-1373 32 1374 0
1373 -32 1374 0
1373 32 -1374 0
-1374 -37 -1375 0
-1374 37 1375 0
1374 -37 1375 0
1374 37 -1375 0
-1375 -38 -1376 0
-1375 38 1376 0
1375 -38 1376 0
1375 38 -1376 0
-1376 -40 -1377 0
-1376 40 1377 0
1376 -40 1377 0
1376 40 -1377 0
1368 1377 0
-4 -5 -1378 0
-4 5 1378 0
4 -5 1378 0
4 5 -1378 0
-1378 -7 -1379 0
-1378 7 1379 0
1378 -7 1379 0
1378 7 -1379 0
-1379 -8 -1380 0
-1379 8 1380 0
1379 -8 1380 0
1379 8 -1380 0
-1380 -10 -1381 0
-1380 10 1381 0
1380 -10 1381 0
1380 10 -1381 0
-1381 -14 -1382 0
-1381 14 1382 0
1381 -14 1382 0
1381 14 -1382 0
-1382 -15 -1383 0
-1382 15 1383 0
1382 -15 1383 0
1382 15 -1383 0
-1383 -17 -1384 0
-1383 17 1384 0
1383 -17 1384 0
1383 17 -1384 0
-1384 -18 -1385 0
-1384 18 1385 0
1384 -18 1385 0
1384 18 -1385 0
-1385 -20 -1386 0
-1385 20 1386 0
1385 -20 1386 0
1385 20 -1386 0
-1386 -24 -1387 0
-1386 24 1387 0
1386 -24 1387 0
1386 24 -1387 0
-1387 -25 -1388 0
-1387 25 1388 0
1387 -25 1388 0
1387 25 -1388 0
-1388 -27 -1389 0
-1388 27 1389 0
1388 -27 1389 0
1388 27 -1389 0
-1389 -28 -1390 0
-1389 28 1390 0
1389 -28 1390 0
1389 28 -1390 0
-1390 -30 -1391 0
-1390 30 1391 0
1390 -30 1391 0
1390 30 -1391 0
-4 -5 -1392 0
-4 5 1392 0
4 -5 1392 0
4 5 -1392 0
-1392 -7 -1393 0
-1392 7 1393 0
1392 -7 1393 0
1392 7 -1393 0
-1393 -8 -1394 0
-1393 8 1394 0
1393 -8 1394 0
1393 8 -1394 0
-1394 -10 -1395 0
-1394 10 1395 0
1394 -10 1395 0
1394 10 -1395 0
-1395 -14 -1396 0
-1395 14 1396 0
1395 -14 1396 0
1395 14 -1396 0
-1396 -15 -1397 0
-1396 15 1397 0
1396 -15 1397 0
1396 15 -1397 0
-1397 -17 -1398 0
-1397 17 1398 0
1397 -17 1398 0
1397 17 -1398 0
-1398 -18 -1399 0
-1398 18 1399 0
1398 -18 1399 0
1398 18 -1399 0
-1399 -20 -1400 0
-1399 20 1400 0
1399 -20 1400 0
1399 20 -1400 0
-1400 -34 -1401 0
-1400 34 1401 0
1400 -34 1401 0
1400 34 -1401 0
-1401 -35 -1402 0
-1401 35 1402 0
1401 -35 1402 0
1401 35 -1402 0
-1402 -37 -1403 0
-1402 37 1403 0
1402 -37 1403 0
1402 37 -1403 0
-1403 -38 -1404 0
-1403 38 1404 0
1403 -38 1404 0
1403 38 -1404 0
-1404 -40 -1405 0
-1404 40 1405 0
1404 -40 1405 0
1404 40 -1405 0
1391 1405 0
-2 -3 -1406 0
-2 3 1406 0
2 -3 1406 0
2 3 -1406 0
-1406 -4 -1407 0
-1406 4 1407 0
1406 -4 1407 0
1406 4 -1407 0
-1407 -5 -1408 0
-1407 5 1408 0
1407 -5 1408 0
1407 5 -1408 0
-1408 -6 -1409 0
-1408 6 1409 0
1408 -6 1409 0
1408 6 -1409 0
-1409 -7 -1410 0
-1409 7 1410 0
1409 -7 1410 0
1409 7 -1410 0
-1410 -8 -1411 0
-1410 8 1411 0
1410 -8 1411 0
1410 8 -1411 0
-1411 -10 -1412 0
-1411 10 1412 0
1411 -10 1412 0
1411 10 -1412 0
-1412 -22 -1413 0
-1412 22 1413 0
1412 -22 1413 0
1412 22 -1413 0
-1413 -23 -1414 0
-1413 23 1414 0
1413 -23 1414 0
1413 23 -1414 0
-1414 -24 -1415 0
-1414 24 1415 0
1414 -24 1415 0
1414 24 -1415 0
-1415 -25 -1416 0
-1415 25 1416 0
1415 -25 1416 0
1415 25 -1416 0
-1416 -26 -1417 0
-1416 26 1417 0
1416 -26 1417 0
1416 26 -1417 0
-1417 -27 -1418 0
-1417 27 1418 0
1417 -27 1418 0
1417 27 -1418 0
-1418 -28 -1419 0
-1418 28 1419 0
1418 -28 1419 0
1418 28 -1419 0
-1419 -30 -1420 0
-1419 30 1420 0
1419 -30 1420 0
1419 30 -1420 0
-2 -3 -1421 0
-2 3 1421 0
2 -3 1421 0
2 3 -1421 0
-1421 -4 -1422 0
-1421 4 1422 0
1421 -4 1422 0
1421 4 -1422 0
-1422 -5 -1423 0
-1422 5 1423 0
1422 -5 1423 0
1422 5 -1423 0
-1423 -6 -1424 0
-1423 6 1424 0
1423 -6 1424 0
1423 6 -1424 0
-1424 -7 -1425 0
-1424 7 1425 0
1424 -7 1425 0
1424 7 -1425 0
-1425 -8 -1426 0
-1425 8 1426 0
1425 -8 1426 0
1425 8 -1426 0
-1426 -10 -1427 0
-1426 10 1427 0
1426 -10 1427 0
1426 10 -1427 0
-1427 -32 -1428 0
-1427 32 1428 0
1427 -32 1428 0
1427 32 -1428 0
-1428 -33 -1429 0
-1428 33 1429 0
1428 -33 1429 0
1428 33 -1429 0
-1429 -34 -1430 0
-1429 34 1430 0
1429 -34 1430 0
1429 34 -1430 0
-1430 -35 -1431 0
-1430 35 1431 0
1430 -35 1431 0
1430 35 -1431 0
-1431 -36 -1432 0
-1431 36 1432 0
1431 -36 1432 0
1431 36 -1432 0
-1432 -37 -1433 0
-1432 37 1433 0
1432 -37 1433 0
1432 37 -1433 0
-1433 -38 -1434 0
-1433 38 1434 0
1433 -38 1434 0
1433 38 -1434 0
-1434 -40 -1435 0
-1434 40 1435 0
1434 -40 1435 0
1434 40 -1435 0
1420 1435 0
-3 -4 -1436 0
-3 4 1436 0
3 -4 1436 0
3 4 -1436 0
-1436 -9 -1437 0
-1436 9 1437 0
1436 -9 1437 0
1436 9 -1437 0
-1437 -10 -1438 0
-1437 10 1438 0
1437 -10 1438 0
1437 10 -1438 0
-1438 -23 -1439 0
-1438 23 1439 0
1438 -23 1439 0
1438 23 -1439 0
-1439 -24 -1440 0
-1439 24 1440 0
1439 -24 1440 0
1439 24 -1440 0
-1440 -29 -1441 0
-1440 29 1441 0
1440 -29 1441 0
1440 29 -1441 0
-1441 -30 -1442 0
-1441 30 1442 0
1441 -30 1442 0
1441 30 -1442 0
-33 -34 -1443 0
-33 34 1443 0
33 -34 1443 0
33 34 -1443 0
-1443 -39 -1444 0
-1443 39 1444 0
1443 -39 1444 0
1443 39 -1444 0
-1444 -40 -1445 0
-1444 40 1445 0
1444 -40 1445 0
1444 40 -1445 0
1442 1445 0
-21 -23 -1446 0
-21 23 1446 0
21 -23 1446 0
21 23 -1446 0
-1446 -24 -1447 0
-1446 24 1447 0
1446 -24 1447 0
1446 24 -1447 0
-1447 -29 -1448 0
-1447 29 1448 0
1447 -29 1448 0
1447 29 -1448 0
-1448 -30 -1449 0
-1448 30 1449 0
1448 -30 1449 0
1448 30 -1449 0
-1 -3 -1450 0
-1 3 1450 0
1 -3 1450 0
1 3 -1450 0
-1450 -4 -1451 0
-1450 4 1451 0
1450 -4 1451 0
1450 4 -1451 0
-1451 -9 -1452 0
-1451 9 1452 0
1451 -9 1452 0
1451 9 -1452 0
-1452 -10 -1453 0
-1452 10 1453 0
1452 -10 1453 0
1452 10 -1453 0
-1453 -11 -1454 0
-1453 11 1454 0
1453 -11 1454 0
1453 11 -1454 0
-1454 -13 -1455 0
-1454 13 1455 0
1454 -13 1455 0
1454 13 -1455 0
-1455 -14 -1456 0
-1455 14 1456 0
1455 -14 1456 0
1455 14 -1456 0
-1456 -19 -1457 0
-1456 19 1457 0
1456 -19 1457 0
1456 19 -1457 0
-1457 -20 -1458 0
-1457 20 1458 0
1457 -20 1458 0
1457 20 -1458 0
-1458 -31 -1459 0
-1458 31 1459 0
1458 -31 1459 0
1458 31 -1459 0
-1459 -33 -1460 0
-1459 33 1460 0
1459 -33 1460 0
1459 33 -1460 0
-1460 -34 -1461 0
-1460 34 1461 0
1460 -34 1461 0
1460 34 -1461 0
-1461 -39 -1462 0
-1461 39 1462 0
1461 -39 1462 0
1461 39 -1462 0
-1462 -40 -1463 0
-1462 40 1463 0
1462 -40 1463 0
1462 40 -1463 0
1449 1463 0
-11 -15 -1464 0
-11 15 1464 0
11 -15 1464 0
11 15 -1464 0
-1464 -19 -1465 0
-1464 19 1465 0
1464 -19 1465 0
1464 19 -1465 0
-1465 -20 -1466 0
-1465 20 1466 0
1465 -20 1466 0
1465 20 -1466 0
-1466 -21 -1467 0
-1466 21 1467 0
1466 -21 1467 0
1466 21 -1467 0
-1467 -25 -1468 0
-1467 25 1468 0
1467 -25 1468 0
1467 25 -1468 0
-1468 -29 -1469 0
-1468 29 1469 0
1468 -29 1469 0
1468 29 -1469 0
-1469 -30 -1470 0
-1469 30 1470 0
1469 -30 1470 0
1469 30 -1470 0
-1 -5 -1471 0
-1 5 1471 0
1 -5 1471 0
1 5 -1471 0
-1471 -9 -1472 0
-1471 9 1472 0
1471 -9 1472 0
1471 9 -1472 0
-1472 -10 -1473 0
-1472 10 1473 0
1472 -10 1473 0
1472 10 -1473 0
-1473 -11 -1474 0
-1473 11 1474 0
1473 -11 1474 0
1473 11 -1474 0
-1474 -15 -1475 0
-1474 15 1475 0
1474 -15 1475 0
1474 15 -1475 0
-1475 -19 -1476 0
-1475 19 1476 0
1475 -19 1476 0
1475 19 -1476 0
-1476 -20 -1477 0
-1476 20 1477 0
1476 -20 1477 0
1476 20 -1477 0
-1477 -31 -1478 0
-1477 31 1478 0
1477 -31 1478 0
1477 31 -1478 0
-1478 -35 -1479 0
-1478 35 1479 0
1478 -35 1479 0
1478 35 -1479 0
-1479 -39 -1480 0
-1479 39 1480 0
1479 -39 1480 0
1479 39 -1480 0
-1480 -40 -1481 0
-1480 40 1481 0
1480 -40 1481 0
1480 40 -1481 0
1470 1481 0
-4 -6 -1482 0
-4 6 1482 0
4 -6 1482 0
4 6 -1482 0
-1482 -9 -1483 0
-1482 9 1483 0
1482 -9 1483 0
1482 9 -1483 0
-1483 -10 -1484 0
-1483 10 1484 0
1483 -10 1484 0
1483 10 -1484 0
-1484 -24 -1485 0
-1484 24 1485 0
1484 -24 1485 0
1484 24 -1485 0
-1485 -26 -1486 0
-1485 26 1486 0
1485 -26 1486 0
1485 26 -1486 0
-1486 -29 -1487 0
-1486 29 1487 0
1486 -29 1487 0
1486 29 -1487 0
-1487 -30 -1488 0
-1487 30 1488 0
1487 -30 1488 0
1487 30 -1488 0
-4 -6 -1489 0
-4 6 1489 0
4 -6 1489 0
4 6 -1489 0
-1489 -9 -1490 0
-1489 9 1490 0
1489 -9 1490 0
1489 9 -1490 0
-1490 -10 -1491 0
-1490 10 1491 0
1490 -10 1491 0
1490 10 -1491 0
-1491 -34 -1492 0
-1491 34 1492 0
1491 -34 1492 0
1491 34 -1492 0
-1492 -36 -1493 0
-1492 36 1493 0
1492 -36 1493 0
1492 36 -1493 0
-1493 -39 -1494 0
-1493 39 1494 0
1493 -39 1494 0
1493 39 -1494 0
-1494 -40 -1495 0
-1494 40 1495 0
1494 -40 1495 0
1494 40 -1495 0
1488 1495 0
-22 -27 -1496 0
-22 27 1496 0
22 -27 1496 0
22 27 -1496 0
-1496 -29 -1497 0
-1496 29 1497 0
1496 -29 1497 0
1496 29 -1497 0
-1497 -30 -1498 0
-1497 30 1498 0
1497 -30 1498 0
1497 30 -1498 0
-32 -37 -1499 0
-32 37 1499 0
32 -37 1499 0
32 37 -1499 0
-1499 -39 -1500 0
-1499 39 1500 0
1499 -39 1500 0
1499 39 -1500 0
-1500 -40 -1501 0
-1500 40 1501 0
1500 -40 1501 0
1500 40 -1501 0
1498 1501 0
-1 -2 -1502 0
-1 2 1502 0
1 -2 1502 0
1 2 -1502 0
-1502 -3 -1503 0
-1502 3 1503 0
1502 -3 1503 0
1502 3 -1503 0
-1503 -5 -1504 0
-1503 5 1504 0
1503 -5 1504 0
1503 5 -1504 0
-1504 -7 -1505 0
-1504 7 1505 0
1504 -7 1505 0
1504 7 -1505 0
-1505 -9 -1506 0
-1505 9 1506 0
1505 -9 1506 0
1505 9 -1506 0
-1506 -10 -1507 0
-1506 10 1507 0
1506 -10 1507 0
1506 10 -1507 0
-1507 -11 -1508 0
-1507 11 1508 0
1507 -11 1508 0
1507 11 -1508 0
-1508 -12 -1509 0
-1508 12 1509 0
1508 -12 1509 0
1508 12 -1509 0
-1509 -13 -1510 0
-1509 13 1510 0
1509 -13 1510 0
1509 13 -1510 0
-1510 -15 -1511 0
-1510 15 1511 0
1510 -15 1511 0
1510 15 -1511 0
-1511 -17 -1512 0
-1511 17 1512 0
1511 -17 1512 0
1511 17 -1512 0
-1512 -19 -1513 0
-1512 19 1513 0
1512 -19 1513 0
1512 19 -1513 0
-1513 -20 -1514 0
-1513 20 1514 0
1513 -20 1514 0
1513 20 -1514 0
-1514 -21 -1515 0
-1514 21 1515 0
1514 -21 1515 0
1514 21 -1515 0
-1515 -22 -1516 0
-1515 22 1516 0
1515 -22 1516 0
1515 22 -1516 0
-1516 -23 -1517 0
-1516 23 1517 0
1516 -23 1517 0
1516 23 -1517 0
-1517 -25 -1518 0
-1517 25 1518 0
1517 -25 1518 0
1517 25 -1518 0
-1518 -27 -1519 0
-1518 27 1519 0
1518 -27 1519 0
1518 27 -1519 0
-1519 -29 -1520 0
-1519 29 1520 0
1519 -29 1520 0
1519 29 -1520 0
-1520 -30 -1521 0
-1520 30 1521 0
1520 -30 1521 0
1520 30 -1521 0
-11 -12 -1522 0
-11 12 1522 0
11 -12 1522 0
11 12 -1522 0
-1522 -13 -1523 0
-1522 13 1523 0
1522 -13 1523 0
1522 13 -1523 0
-1523 -15 -1524 0
-1523 15 1524 0
1523 -15 1524 0
1523 15 -1524 0
-1524 -17 -1525 0
-1524 17 1525 0
1524 -17 1525 0
1524 17 -1525 0
-1525 -19 -1526 0
-1525 19 1526 0
1525 -19 1526 0
1525 19 -1526 0
-1526 -20 -1527 0
-1526 20 1527 0
1526 -20 1527 0
1526 20 -1527 0
-1527 -31 -1528 0
-1527 31 1528 0
1527 -31 1528 0
1527 31 -1528 0
-1528 -32 -1529 0
-1528 32 1529 0
1528 -32 1529 0
1528 32 -1529 0
-1529 -33 -1530 0
-1529 33 1530 0
1529 -33 1530 0
1529 33 -1530 0
-1530 -35 -1531 0
-1530 35 1531 0
1530 -35 1531 0
1530 35 -1531 0
-1531 -37 -1532 0
-1531 37 1532 0
1531 -37 1532 0
1531 37 -1532 0
-1532 -39 -1533 0
-1532 39 1533 0
1532 -39 1533 0
1532 39 -1533 0
-1533 -40 -1534 0
-1533 40 1534 0
1533 -40 1534 0
1533 40 -1534 0
1521 1534 0
-11 -13 -1535 0
-11 13 1535 0
11 -13 1535 0
11 13 -1535 0
-1535 -16 -1536 0
-1535 16 1536 0
1535 -16 1536 0
1535 16 -1536 0
-1536 -17 -1537 0
-1536 17 1537 0
1536 -17 1537 0
1536 17 -1537 0
-1537 -19 -1538 0
-1537 19 1538 0
1537 -19 1538 0
1537 19 -1538 0
-1538 -20 -1539 0
-1538 20 1539 0
1538 -20 1539 0
1538 20 -1539 0
-1539 -21 -1540 0
-1539 21 1540 0
1539 -21 1540 0
1539 21 -1540 0
-1540 -23 -1541 0
-1540 23 1541 0
1540 -23 1541 0
1540 23 -1541 0
-1541 -26 -1542 0
-1541 26 1542 0
1541 -26 1542 0
1541 26 -1542 0
-1542 -27 -1543 0
-1542 27 1543 0
1542 -27 1543 0
1542 27 -1543 0
-1543 -29 -1544 0
-1543 29 1544 0
1543 -29 1544 0
1543 29 -1544 0
-1544 -30 -1545 0
-1544 30 1545 0
1544 -30 1545 0
1544 30 -1545 0
-31 -33 -1546 0
-31 33 1546 0
31 -33 1546 0
31 33 -1546 0
-1546 -36 -1547 0
-1546 36 1547 0
1546 -36 1547 0
1546 36 -1547 0
-1547 -37 -1548 0
-1547 37 1548 0
1547 -37 1548 0
1547 37 -1548 0
-1548 -39 -1549 0
-1548 39 1549 0
1548 -39 1549 0
1548 39 -1549 0
-1549 -40 -1550 0
-1549 40 1550 0
1549 -40 1550 0
1549 40 -1550 0
1545 1550 0
-21 -24 -1551 0
-21 24 1551 0
21 -24 1551 0
21 24 -1551 0
-1551 -26 -1552 0
-1551 26 1552 0
1551 -26 1552 0
1551 26 -1552 0
-1552 -27 -1553 0
-1552 27 1553 0
1552 -27 1553 0
1552 27 -1553 0
-1553 -29 -1554 0
-1553 29 1554 0
1553 -29 1554 0
1553 29 -1554 0
-1554 -30 -1555 0
-1554 30 1555 0
1554 -30 1555 0
1554 30 -1555 0
-1 -4 -1556 0
-1 4 1556 0
1 -4 1556 0
1 4 -1556 0
-1556 -6 -1557 0
-1556 6 1557 0
1556 -6 1557 0
1556 6 -1557 0
-1557 -7 -1558 0
-1557 7 1558 0
1557 -7 1558 0
1557 7 -1558 0
-1558 -9 -1559 0
-1558 9 1559 0
1558 -9 1559 0
1558 9 -1559 0
-1559 -10 -1560 0
-1559 10 1560 0
1559 -10 1560 0
1559 10 -1560 0
-1560 -31 -1561 0
-1560 31 1561 0
1560 -31 1561 0
1560 31 -1561 0
-1561 -34 -1562 0
-1561 34 1562 0
1561 -34 1562 0
1561 34 -1562 0
-1562 -36 -1563 0
-1562 36 1563 0
1562 -36 1563 0
1562 36 -1563 0
-1563 -37 -1564 0
-1563 37 1564 0
1563 -37 1564 0
1563 37 -1564 0
-1564 -39 -1565 0
-1564 39 1565 0
1564 -39 1565 0
1564 39 -1565 0
-1565 -40 -1566 0
-1565 40 1566 0
1565 -40 1566 0
1565 40 -1566 0
1555 1566 0
-2 -5 -1567 0
-2 5 1567 0
2 -5 1567 0
2 5 -1567 0
-1567 -6 -1568 0
-1567 6 1568 0
1567 -6 1568 0
1567 6 -1568 0
-1568 -7 -1569 0
-1568 7 1569 0
1568 -7 1569 0
1568 7 -1569 0
-1569 -9 -1570 0
-1569 9 1570 0
1569 -9 1570 0
1569 9 -1570 0
-1570 -10 -1571 0
-1570 10 1571 0
1570 -10 1571 0
1570 10 -1571 0
-1571 -22 -1572 0
-1571 22 1572 0
1571 -22 1572 0
1571 22 -1572 0
-1572 -25 -1573 0
-1572 25 1573 0
1572 -25 1573 0
1572 25 -1573 0
-1573 -26 -1574 0
-1573 26 1574 0
1573 -26 1574 0
1573 26 -1574 0
-1574 -27 -1575 0
-1574 27 1575 0
1574 -27 1575 0
1574 27 -1575 0
-1575 -29 -1576 0
-1575 29 1576 0
1575 -29 1576 0
1575 29 -1576 0
-1576 -30 -1577 0
-1576 30 1577 0
1576 -30 1577 0
1576 30 -1577 0
-2 -5 -1578 0
-2 5 1578 0
2 -5 1578 0
2 5 -1578 0
-1578 -6 -1579 0
-1578 6 1579 0
1578 -6 1579 0
1578 6 -1579 0
-1579 -7 -1580 0
-1579 7 1580 0
1579 -7 1580 0
1579 7 -1580 0
-1580 -9 -1581 0
-1580 9 1581 0
1580 -9 1581 0
1580 9 -1581 0
-1581 -10 -1582 0
-1581 10 1582 0
1581 -10 1582 0
1581 10 -1582 0
-1582 -12 -1583 0
-1582 12 1583 0
1582 -12 1583 0
1582 12 -1583 0
-1583 -15 -1584 0
-1583 15 1584 0
1583 -15 1584 0
1583 15 -1584 0
-1584 -16 -1585 0
-1584 16 1585 0
1584 -16 1585 0
1584 16 -1585 0
-1585 -17 -1586 0
-1585 17 1586 0
1585 -17 1586 0
1585 17 -1586 0
-1586 -19 -1587 0
-1586 19 1587 0
1586 -19 1587 0
1586 19 -1587 0
-1587 -20 -1588 0
-1587 20 1588 0
1587 -20 1588 0
1587 20 -1588 0
-1588 -32 -1589 0
-1588 32 1589 0
1588 -32 1589 0
1588 32 -1589 0
-1589 -35 -1590 0
-1589 35 1590 0
1589 -35 1590 0
1589 35 -1590 0
-1590 -36 -1591 0
-1590 36 1591 0
1590 -36 1591 0
1590 36 -1591 0
-1591 -37 -1592 0
-1591 37 1592 0
1591 -37 1592 0
1591 37 -1592 0
-1592 -39 -1593 0
-1592 39 1593 0
1592 -39 1593 0
1592 39 -1593 0
-1593 -40 -1594 0
-1593 40 1594 0
1593 -40 1594 0
1593 40 -1594 0
1577 1594 0
-11 -12 -1595 0
-11 12 1595 0
11 -12 1595 0
11 12 -1595 0
-1595 -13 -1596 0
-1595 13 1596 0
1595 -13 1596 0
1595 13 -1596 0
-1596 -14 -1597 0
-1596 14 1597 0
1596 -14 1597 0
1596 14 -1597 0
-1597 -15 -1598 0
-1597 15 1598 0
1597 -15 1598 0
1597 15 -1598 0
-1598 -16 -1599 0
-1598 16 1599 0
1598 -16 1599 0
1598 16 -1599 0
-1599 -17 -1600 0
-1599 17 1600 0
1599 -17 1600 0
1599 17 -1600 0
-1600 -19 -1601 0
-1600 19 1601 0
1600 -19 1601 0
1600 19 -1601 0
-1601 -20 -1602 0
-1601 20 1602 0
1601 -20 1602 0
1601 20 -1602 0
-1602 -21 -1603 0
-1602 21 1603 0
1602 -21 1603 0
1602 21 -1603 0
-1603 -22 -1604 0
-1603 22 1604 0
1603 -22 1604 0
1603 22 -1604 0
-1604 -23 -1605 0
-1604 23 1605 0
1604 -23 1605 0
1604 23 -1605 0
-1605 -24 -1606 0
-1605 24 1606 0
1605 -24 1606 0
1605 24 -1606 0
-1606 -25 -1607 0
-1606 25 1607 0
1606 -25 1607 0
1606 25 -1607 0
-1607 -26 -1608 0
-1607 26 1608 0
1607 -26 1608 0
1607 26 -1608 0
-1608 -27 -1609 0
-1608 27 1609 0
1608 -27 1609 0
1608 27 -1609 0
-1609 -29 -1610 0
-1609 29 1610 0
1609 -29 1610 0
1609 29 -1610 0
-1610 -30 -1611 0
-1610 30 1611 0
1610 -30 1611 0
1610 30 -1611 0
-1 -2 -1612 0
-1 2 1612 0
1 -2 1612 0
1 2 -1612 0
-1612 -3 -1613 0
-1612 3 1613 0
1612 -3 1613 0
1612 3 -1613 0
-1613 -4 -1614 0
-1613 4 1614 0
1613 -4 1614 0
1613 4 -1614 0
-1614 -5 -1615 0
-1614 5 1615 0
1614 -5 1615 0
1614 5 -1615 0
-1615 -6 -1616 0
-1615 6 1616 0
1615 -6 1616 0
1615 6 -1616 0
-1616 -7 -1617 0
-1616 7 1617 0
1616 -7 1617 0
1616 7 -1617 0
-1617 -9 -1618 0
-1617 9 1618 0
1617 -9 1618 0
1617 9 -1618 0
-1618 -10 -1619 0
-1618 10 1619 0
1618 -10 1619 0
1618 10 -1619 0
-1619 -31 -1620 0
-1619 31 1620 0
1619 -31 1620 0
1619 31 -1620 0
-1620 -32 -1621 0
-1620 32 1621 0
1620 -32 1621 0
1620 32 -1621 0
-1621 -33 -1622 0
-1621 33 1622 0
1621 -33 1622 0
1621 33 -1622 0
-1622 -34 -1623 0
-1622 34 1623 0
1622 -34 1623 0
1622 34 -1623 0
-1623 -35 -1624 0
-1623 35 1624 0
1623 -35 1624 0
1623 35 -1624 0
-1624 -36 -1625 0
-1624 36 1625 0
1624 -36 1625 0
1624 36 -1625 0
-1625 -37 -1626 0
-1625 37 1626 0
1625 -37 1626 0
1625 37 -1626 0
-1626 -39 -1627 0
-1626 39 1627 0
1626 -39 1627 0
1626 39 -1627 0
-1627 -40 -1628 0
-1627 40 1628 0
1627 -40 1628 0
1627 40 -1628 0
1611 1628 0
-21 -22 -1629 0
-21 22 1629 0
21 -22 1629 0
21 22 -1629 0
-1629 -25 -1630 0
-1629 25 1630 0
1629 -25 1630 0
1629 25 -1630 0
-1630 -28 -1631 0
-1630 28 1631 0
1630 -28 1631 0
1630 28 -1631 0
-1631 -29 -1632 0
-1631 29 1632 0
1631 -29 1632 0
1631 29 -1632 0
-1632 -30 -1633 0
-1632 30 1633 0
1632 -30 1633 0
1632 30 -1633 0
-11 -12 -1634 0
-11 12 1634 0
11 -12 1634 0
11 12 -1634 0
-1634 -15 -1635 0
-1634 15 1635 0
1634 -15 1635 0
1634 15 -1635 0
-1635 -18 -1636 0
-1635 18 1636 0
1635 -18 1636 0
1635 18 -1636 0
-1636 -19 -1637 0
-1636 19 1637 0
1636 -19 1637 0
1636 19 -1637 0
-1637 -20 -1638 0
-1637 20 1638 0
1637 -20 1638 0
1637 20 -1638 0
-1638 -31 -1639 0
-1638 31 1639 0
1638 -31 1639 0
1638 31 -1639 0
-1639 -32 -1640 0
-1639 32 1640 0
1639 -32 1640 0
1639 32 -1640 0
-1640 -35 -1641 0
-1640 35 1641 0
1640 -35 1641 0
1640 35 -1641 0
-1641 -38 -1642 0
-1641 38 1642 0
1641 -38 1642 0
1641 38 -1642 0
-1642 -39 -1643 0
-1642 39 1643 0
1642 -39 1643 0
1642 39 -1643 0
-1643 -40 -1644 0
-1643 40 1644 0
1643 -40 1644 0
1643 40 -1644 0
1633 1644 0
-2 -4 -1645 0
-2 4 1645 0
2 -4 1645 0
2 4 -1645 0
-1645 -6 -1646 0
-1645 6 1646 0
1645 -6 1646 0
1645 6 -1646 0
-1646 -8 -1647 0
-1646 8 1647 0
1646 -8 1647 0
1646 8 -1647 0
-1647 -9 -1648 0
-1647 9 1648 0
1647 -9 1648 0
1647 9 -1648 0
-1648 -10 -1649 0
-1648 10 1649 0
1648 -10 1649 0
1648 10 -1649 0
-1649 -12 -1650 0
-1649 12 1650 0
1649 -12 1650 0
1649 12 -1650 0
-1650 -14 -1651 0
-1650 14 1651 0
1650 -14 1651 0
1650 14 -1651 0
-1651 -16 -1652 0
-1651 16 1652 0
1651 -16 1652 0
1651 16 -1652 0
-1652 -18 -1653 0
-1652 18 1653 0
1652 -18 1653 0
1652 18 -1653 0
-1653 -19 -1654 0
-1653 19 1654 0
1653 -19 1654 0
1653 19 -1654 0
-1654 -20 -1655 0
-1654 20 1655 0
1654 -20 1655 0
1654 20 -1655 0
-1655 -22 -1656 0
-1655 22 1656 0
1655 -22 1656 0
1655 22 -1656 0
-1656 -24 -1657 0
-1656 24 1657 0
1656 -24 1657 0
1656 24 -1657 0
-1657 -26 -1658 0
-1657 26 1658 0
1657 -26 1658 0
1657 26 -1658 0
-1658 -28 -1659 0
-1658 28 1659 0
1658 -28 1659 0
1658 28 -1659 0
-1659 -29 -1660 0
-1659 29 1660 0
1659 -29 1660 0
1659 29 -1660 0
-1660 -30 -1661 0
-1660 30 1661 0
1660 -30 1661 0
1660 30 -1661 0
-2 -4 -1662 0
-2 4 1662 0
2 -4 1662 0
2 4 -1662 0
-1662 -6 -1663 0
-1662 6 1663 0
1662 -6 1663 0
1662 6 -1663 0
-1663 -8 -1664 0
-1663 8 1664 0
1663 -8 1664 0
1663 8 -1664 0
-1664 -9 -1665 0
-1664 9 1665 0
1664 -9 1665 0
1664 9 -1665 0
-1665 -10 -1666 0
-1665 10 1666 0
1665 -10 1666 0
1665 10 -1666 0
-1666 -32 -1667 0
-1666 32 1667 0
1666 -32 1667 0
1666 32 -1667 0
-1667 -34 -1668 0
-1667 34 1668 0
1667 -34 1668 0
1667 34 -1668 0
-1668 -36 -1669 0
-1668 36 1669 0
1668 -36 1669 0
1668 36 -1669 0
-1669 -38 -1670 0
-1669 38 1670 0
1669 -38 1670 0
1669 38 -1670 0
-1670 -39 -1671 0
-1670 39 1671 0
1670 -39 1671 0
1670 39 -1671 0
-1671 -40 -1672 0
-1671 40 1672 0
1671 -40 1672 0
1671 40 -1672 0
1661 1672 0
-1 -5 -1673 0
-1 5 1673 0
1 -5 1673 0
1 5 -1673 0
-1673 -6 -1674 0
-1673 6 1674 0
1673 -6 1674 0
1673 6 -1674 0
-1674 -8 -1675 0
-1674 8 1675 0
1674 -8 1675 0
1674 8 -1675 0
-1675 -9 -1676 0
-1675 9 1676 0
1675 -9 1676 0
1675 9 -1676 0
-1676 -10 -1677 0
-1676 10 1677 0
1676 -10 1677 0
1676 10 -1677 0
-1677 -11 -1678 0
-1677 11 1678 0
1677 -11 1678 0
1677 11 -1678 0
-1678 -15 -1679 0
-1678 15 1679 0
1678 -15 1679 0
1678 15 -1679 0
-1679 -16 -1680 0
-1679 16 1680 0
1679 -16 1680 0
1679 16 -1680 0
-1680 -18 -1681 0
-1680 18 1681 0
1680 -18 1681 0
1680 18 -1681 0
-1681 -19 -1682 0
-1681 19 1682 0
1681 -19 1682 0
1681 19 -1682 0
-1682 -20 -1683 0
-1682 20 1683 0
1682 -20 1683 0
1682 20 -1683 0
-1683 -21 -1684 0
-1683 21 1684 0
1683 -21 1684 0
1683 21 -1684 0
-1684 -25 -1685 0
-1684 25 1685 0
1684 -25 1685 0
1684 25 -1685 0
-1685 -26 -1686 0
-1685 26 1686 0
1685 -26 1686 0
1685 26 -1686 0
-1686 -28 -1687 0
-1686 28 1687 0
1686 -28 1687 0
1686 28 -1687 0
-1687 -29 -1688 0
-1687 29 1688 0
1687 -29 1688 0
1687 29 -1688 0
-1688 -30 -1689 0
-1688 30 1689 0
1688 -30 1689 0
1688 30 -1689 0
-31 -35 -1690 0
-31 35 1690 0
31 -35 1690 0
31 35 -1690 0
-1690 -36 -1691 0
-1690 36 1691 0
1690 -36 1691 0
1690 36 -1691 0
-1691 -38 -1692 0
-1691 38 1692 0
1691 -38 1692 0
1691 38 -1692 0
-1692 -39 -1693 0
-1692 39 1693 0
1692 -39 1693 0
1692 39 -1693 0
-1693 -40 -1694 0
-1693 40 1694 0
1693 -40 1694 0
1693 40 -1694 0
1689 1694 0
-12 -14 -1695 0
-12 14 1695 0
12 -14 1695 0
12 14 -1695 0
-1695 -15 -1696 0
-1695 15 1696 0
1695 -15 1696 0
1695 15 -1696 0
-1696 -16 -1697 0
-1696 16 1697 0
1696 -16 1697 0
1696 16 -1697 0
-1697 -18 -1698 0
-1697 18 1698 0
1697 -18 1698 0
1697 18 -1698 0
-1698 -19 -1699 0
-1698 19 1699 0
1698 -19 1699 0
1698 19 -1699 0
-1699 -20 -1700 0
-1699 20 1700 0
1699 -20 1700 0
1699 20 -1700 0
-1700 -22 -1701 0
-1700 22 1701 0
1700 -22 1701 0
1700 22 -1701 0
-1701 -24 -1702 0
-1701 24 1702 0
1701 -24 1702 0
1701 24 -1702 0
-1702 -25 -1703 0
-1702 25 1703 0
1702 -25 1703 0
1702 25 -1703 0
-1703 -26 -1704 0
-1703 26 1704 0
1703 -26 1704 0
1703 26 -1704 0
-1704 -28 -1705 0
-1704 28 1705 0
1704 -28 1705 0
1704 28 -1705 0
-1705 -29 -1706 0
-1705 29 1706 0
1705 -29 1706 0
1705 29 -1706 0
-1706 -30 -1707 0
-1706 30 1707 0
1706 -30 1707 0
1706 30 -1707 0
-12 -14 -1708 0
-12 14 1708 0
12 -14 1708 0
12 14 -1708 0
-1708 -15 -1709 0
-1708 15 1709 0
1708 -15 1709 0
1708 15 -1709 0
-1709 -16 -1710 0
-1709 16 1710 0
1709 -16 1710 0
1709 16 -1710 0
-1710 -18 -1711 0
-1710 18 1711 0
1710 -18 1711 0
1710 18 -1711 0
-1711 -19 -1712 0
-1711 19 1712 0
1711 -19 1712 0
1711 19 -1712 0
-1712 -20 -1713 0
-1712 20 1713 0
1712 -20 1713 0
1712 20 -1713 0
-1713 -32 -1714 0
-1713 32 1714 0
1713 -32 1714 0
1713 32 -1714 0
-1714 -34 -1715 0
-1714 34 1715 0
1714 -34 1715 0
1714 34 -1715 0
-1715 -35 -1716 0
-1715 35 1716 0
1715 -35 1716 0
1715 35 -1716 0
-1716 -36 -1717 0
-1716 36 1717 0
1716 -36 1717 0
1716 36 -1717 0
-1717 -38 -1718 0
-1717 38 1718 0
1717 -38 1718 0
1717 38 -1718 0
-1718 -39 -1719 0
-1718 39 1719 0
1718 -39 1719 0
1718 39 -1719 0
-1719 -40 -1720 0
-1719 40 1720 0
1719 -40 1720 0
1719 40 -1720 0
1707 1720 0
-1 -4 -1721 0
-1 4 1721 0
1 -4 1721 0
1 4 -1721 0
-1721 -6 -1722 0
-1721 6 1722 0
1721 -6 1722 0
1721 6 -1722 0
-1722 -7 -1723 0
-1722 7 1723 0
1722 -7 1723 0
1722 7 -1723 0
-1723 -8 -1724 0
-1723 8 1724 0
1723 -8 1724 0
1723 8 -1724 0
-1724 -9 -1725 0
-1724 9 1725 0
1724 -9 1725 0
1724 9 -1725 0
-1725 -10 -1726 0
-1725 10 1726 0
1725 -10 1726 0
1725 10 -1726 0
-1726 -21 -1727 0
-1726 21 1727 0
1726 -21 1727 0
1726 21 -1727 0
-1727 -24 -1728 0
-1727 24 1728 0
1727 -24 1728 0
1727 24 -1728 0
-1728 -26 -1729 0
-1728 26 1729 0
1728 -26 1729 0
1728 26 -1729 0
-1729 -27 -1730 0
-1729 27 1730 0
1729 -27 1730 0
1729 27 -1730 0
-1730 -28 -1731 0
-1730 28 1731 0
1730 -28 1731 0
1730 28 -1731 0
-1731 -29 -1732 0
-1731 29 1732 0
1731 -29 1732 0
1731 29 -1732 0
-1732 -30 -1733 0
-1732 30 1733 0
1732 -30 1733 0
1732 30 -1733 0
-11 -14 -1734 0
-11 14 1734 0
11 -14 1734 0
11 14 -1734 0
-1734 -16 -1735 0
-1734 16 1735 0
1734 -16 1735 0
1734 16 -1735 0
-1735 -17 -1736 0
-1735 17 1736 0
1735 -17 1736 0
1735 17 -1736 0
-1736 -18 -1737 0
-1736 18 1737 0
1736 -18 1737 0
1736 18 -1737 0
-1737 -19 -1738 0
-1737 19 1738 0
1737 -19 1738 0
1737 19 -1738 0
-1738 -20 -1739 0
-1738 20 1739 0
1738 -20 1739 0
1738 20 -1739 0
-1739 -31 -1740 0
-1739 31 1740 0
1739 -31 1740 0
1739 31 -1740 0
-1740 -34 -1741 0
-1740 34 1741 0
1740 -34 1741 0
1740 34 -1741 0
-1741 -36 -1742 0
-1741 36 1742 0
1741 -36 1742 0
1741 36 -1742 0
-1742 -37 -1743 0
-1742 37 1743 0
1742 -37 1743 0
1742 37 -1743 0
-1743 -38 -1744 0
-1743 38 1744 0
1743 -38 1744 0
1743 38 -1744 0
-1744 -39 -1745 0
-1744 39 1745 0
1744 -39 1745 0
1744 39 -1745 0
-1745 -40 -1746 0
-1745 40 1746 0
1745 -40 1746 0
1745 40 -1746 0
1733 1746 0
-2 -3 -1747 0
-2 3 1747 0
2 -3 1747 0
2 3 -1747 0
-1747 -5 -1748 0
-1747 5 1748 0
1747 -5 1748 0
1747 5 -1748 0
-1748 -6 -1749 0
-1748 6 1749 0
1748 -6 1749 0
1748 6 -1749 0
-1749 -7 -1750 0
-1749 7 1750 0
1749 -7 1750 0
1749 7 -1750 0
-1750 -8 -1751 0
-1750 8 1751 0
1750 -8 1751 0
1750 8 -1751 0
-1751 -9 -1752 0
-1751 9 1752 0
1751 -9 1752 0
1751 9 -1752 0
-1752 -10 -1753 0
-1752 10 1753 0
1752 -10 1753 0
1752 10 -1753 0
-1753 -12 -1754 0
-1753 12 1754 0
1753 -12 1754 0
1753 12 -1754 0
-1754 -13 -1755 0
-1754 13 1755 0
1754 -13 1755 0
1754 13 -1755 0
-1755 -15 -1756 0
-1755 15 1756 0
1755 -15 1756 0
1755 15 -1756 0
-1756 -16 -1757 0
-1756 16 1757 0
1756 -16 1757 0
1756 16 -1757 0
-1757 -17 -1758 0
-1757 17 1758 0
1757 -17 1758 0
1757 17 -1758 0
-1758 -18 -1759 0
-1758 18 1759 0
1758 -18 1759 0
1758 18 -1759 0
-1759 -19 -1760 0
-1759 19 1760 0
1759 -19 1760 0
1759 19 -1760 0
-1760 -20 -1761 0
-1760 20 1761 0
1760 -20 1761 0
1760 20 -1761 0
-1761 -22 -1762 0
-1761 22 1762 0
1761 -22 1762 0
1761 22 -1762 0
-1762 -23 -1763 0
-1762 23 1763 0
1762 -23 1763 0
1762 23 -1763 0
-1763 -25 -1764 0
-1763 25 1764 0
1763 -25 1764 0
1763 25 -1764 0
-1764 -26 -1765 0
-1764 26 1765 0
1764 -26 1765 0
1764 26 -1765 0
-1765 -27 -1766 0
-1765 27 1766 0
1765 -27 1766 0
1765 27 -1766 0
-1766 -28 -1767 0
-1766 28 1767 0
1766 -28 1767 0
1766 28 -1767 0
-1767 -29 -1768 0
-1767 29 1768 0
1767 -29 1768 0
1767 29 -1768 0
-1768 -30 -1769 0
-1768 30 1769 0
1768 -30 1769 0
1768 30 -1769 0
-2 -3 -1770 0
-2 3 1770 0
2 -3 1770 0
2 3 -1770 0
-1770 -5 -1771 0
-1770 5 1771 0
1770 -5 1771 0
1770 5 -1771 0
-1771 -6 -1772 0
-1771 6 1772 0
1771 -6 1772 0
1771 6 -1772 0
-1772 -7 -1773 0
-1772 7 1773 0
1772 -7 1773 0
1772 7 -1773 0
-1773 -8 -1774 0
-1773 8 1774 0
1773 -8 1774 0
1773 8 -1774 0
-1774 -9 -1775 0
-1774 9 1775 0
1774 -9 1775 0
1774 9 -1775 0
-1775 -10 -1776 0
-1775 10 1776 0
1775 -10 1776 0
1775 10 -1776 0
-1776 -12 -1777 0
-1776 12 1777 0
1776 -12 1777 0
1776 12 -1777 0
-1777 -13 -1778 0
-1777 13 1778 0
1777 -13 1778 0
1777 13 -1778 0
-1778 -15 -1779 0
-1778 15 1779 0
1778 -15 1779 0
1778 15 -1779 0
-1779 -16 -1780 0
-1779 16 1780 0
1779 -16 1780 0
1779 16 -1780 0
-1780 -17 -1781 0
-1780 17 1781 0
1780 -17 1781 0
1780 17 -1781 0
-1781 -18 -1782 0
-1781 18 1782 0
1781 -18 1782 0
1781 18 -1782 0
-1782 -19 -1783 0
-1782 19 1783 0
1782 -19 1783 0
1782 19 -1783 0
-1783 -20 -1784 0
-1783 20 1784 0
1783 -20 1784 0
1783 20 -1784 0
-1784 -32 -1785 0
-1784 32 1785 0
1784 -32 1785 0
1784 32 -1785 0
-1785 -33 -1786 0
-1785 33 1786 0
1785 -33 1786 0
1785 33 -1786 0
-1786 -35 -1787 0
-1786 35 1787 0
1786 -35 1787 0
1786 35 -1787 0
-1787 -36 -1788 0
-1787 36 1788 0
1787 -36 1788 0
1787 36 -1788 0
-1788 -37 -1789 0
-1788 37 1789 0
1788 -37 1789 0
1788 37 -1789 0
-1789 -38 -1790 0
-1789 38 1790 0
1789 -38 1790 0
1789 38 -1790 0
-1790 -39 -1791 0
-1790 39 1791 0
1790 -39 1791 0
1790 39 -1791 0
-1791 -40 -1792 0
-1791 40 1792 0
1791 -40 1792 0
1791 40 -1792 0
1769 1792 0
