p cnf                 1788                 7097
-1 -7 -41 0
-1 7 41 0
1 -7 41 0
1 7 -41 0
-11 -17 -42 0
-11 17 42 0
11 -17 42 0
11 17 -42 0
-42 -21 -43 0
-42 21 43 0
42 -21 43 0
42 21 -43 0
-43 -27 -44 0
-43 27 44 0
43 -27 44 0
43 27 -44 0
41 44 0
-2 -3 -45 0
-2 3 45 0
2 -3 45 0
2 3 -45 0
-45 -4 -46 0
-45 4 46 0
45 -4 46 0
45 4 -46 0
-46 -7 -47 0
-46 7 47 0
46 -7 47 0
46 7 -47 0
-12 -13 -48 0
-12 13 48 0
12 -13 48 0
12 13 -48 0
-48 -14 -49 0
-48 14 49 0
48 -14 49 0
48 14 -49 0
-49 -17 -50 0
-49 17 50 0
49 -17 50 0
49 17 -50 0
-50 -32 -51 0
-50 32 51 0
50 -32 51 0
50 32 -51 0
-51 -33 -52 0
-51 33 52 0
51 -33 52 0
51 33 -52 0
-52 -34 -53 0
-52 34 53 0
52 -34 53 0
52 34 -53 0
-53 -37 -54 0
-53 37 54 0
53 -37 54 0
53 37 -54 0
47 54 0
-2 -8 -55 0
-2 8 55 0
2 -8 55 0
2 8 -55 0
-12 -18 -56 0
-12 18 56 0
12 -18 56 0
12 18 -56 0
-56 -22 -57 0
-56 22 57 0
56 -22 57 0
56 22 -57 0
-57 -28 -58 0
-57 28 58 0
57 -28 58 0
57 28 -58 0
55 58 0
-1 -2 -59 0
-1 2 59 0
1 -2 59 0
1 2 -59 0
-59 -7 -60 0
-59 7 60 0
59 -7 60 0
59 7 -60 0
-60 -8 -61 0
-60 8 61 0
60 -8 61 0
60 8 -61 0
-11 -12 -62 0
-11 12 62 0
11 -12 62 0
11 12 -62 0
-62 -17 -63 0
-62 17 63 0
62 -17 63 0
62 17 -63 0
-63 -18 -64 0
-63 18 64 0
63 -18 64 0
63 18 -64 0
-64 -21 -65 0
-64 21 65 0
64 -21 65 0
64 21 -65 0
-65 -22 -66 0
-65 22 66 0
65 -22 66 0
65 22 -66 0
-66 -27 -67 0
-66 27 67 0
66 -27 67 0
66 27 -67 0
-67 -28 -68 0
-67 28 68 0
67 -28 68 0
67 28 -68 0
61 68 0
-2 -3 -69 0
-2 3 69 0
2 -3 69 0
2 3 -69 0
-69 -7 -70 0
-69 7 70 0
69 -7 70 0
69 7 -70 0
-70 -8 -71 0
-70 8 71 0
70 -8 71 0
70 8 -71 0
-22 -23 -72 0
-22 23 72 0
22 -23 72 0
22 23 -72 0
-72 -27 -73 0
-72 27 73 0
72 -27 73 0
72 27 -73 0
-73 -28 -74 0
-73 28 74 0
73 -28 74 0
73 28 -74 0
-74 -32 -75 0
-74 32 75 0
74 -32 75 0
74 32 -75 0
-75 -33 -76 0
-75 33 76 0
75 -33 76 0
75 33 -76 0
-76 -37 -77 0
-76 37 77 0
76 -37 77 0
76 37 -77 0
-77 -38 -78 0
-77 38 78 0
77 -38 78 0
77 38 -78 0
71 78 0
-1 -2 -79 0
-1 2 79 0
1 -2 79 0
1 2 -79 0
-79 -3 -80 0
-79 3 80 0
79 -3 80 0
79 3 -80 0
-80 -4 -81 0
-80 4 81 0
80 -4 81 0
80 4 -81 0
-81 -5 -82 0
-81 5 82 0
81 -5 82 0
81 5 -82 0
-82 -9 -83 0
-82 9 83 0
82 -9 83 0
82 9 -83 0
-21 -22 -84 0
-21 22 84 0
21 -22 84 0
21 22 -84 0
-84 -23 -85 0
-84 23 85 0
84 -23 85 0
84 23 -85 0
-85 -24 -86 0
-85 24 86 0
85 -24 86 0
85 24 -86 0
-86 -25 -87 0
-86 25 87 0
86 -25 87 0
86 25 -87 0
-87 -29 -88 0
-87 29 88 0
87 -29 88 0
87 29 -88 0
83 88 0
-1 -3 -89 0
-1 3 89 0
1 -3 89 0
1 3 -89 0
-89 -4 -90 0
-89 4 90 0
89 -4 90 0
89 4 -90 0
-90 -5 -91 0
-90 5 91 0
90 -5 91 0
90 5 -91 0
-91 -8 -92 0
-91 8 92 0
91 -8 92 0
91 8 -92 0
-92 -9 -93 0
-92 9 93 0
92 -9 93 0
92 9 -93 0
-31 -33 -94 0
-31 33 94 0
31 -33 94 0
31 33 -94 0
-94 -34 -95 0
-94 34 95 0
94 -34 95 0
94 34 -95 0
-95 -35 -96 0
-95 35 96 0
95 -35 96 0
95 35 -96 0
-96 -38 -97 0
-96 38 97 0
96 -38 97 0
96 38 -97 0
-97 -39 -98 0
-97 39 98 0
97 -39 98 0
97 39 -98 0
93 98 0
-1 -2 -99 0
-1 2 99 0
1 -2 99 0
1 2 -99 0
-99 -5 -100 0
-99 5 100 0
99 -5 100 0
99 5 -100 0
-100 -7 -101 0
-100 7 101 0
100 -7 101 0
100 7 -101 0
-101 -8 -102 0
-101 8 102 0
101 -8 102 0
101 8 -102 0
-102 -9 -103 0
-102 9 103 0
102 -9 103 0
102 9 -103 0
-11 -12 -104 0
-11 12 104 0
11 -12 104 0
11 12 -104 0
-104 -15 -105 0
-104 15 105 0
104 -15 105 0
104 15 -105 0
-105 -17 -106 0
-105 17 106 0
105 -17 106 0
105 17 -106 0
-106 -18 -107 0
-106 18 107 0
106 -18 107 0
106 18 -107 0
-107 -19 -108 0
-107 19 108 0
107 -19 108 0
107 19 -108 0
103 108 0
-1 -4 -109 0
-1 4 109 0
1 -4 109 0
1 4 -109 0
-109 -5 -110 0
-109 5 110 0
109 -5 110 0
109 5 -110 0
-110 -7 -111 0
-110 7 111 0
110 -7 111 0
110 7 -111 0
-111 -8 -112 0
-111 8 112 0
111 -8 112 0
111 8 -112 0
-112 -9 -113 0
-112 9 113 0
112 -9 113 0
112 9 -113 0
-11 -14 -114 0
-11 14 114 0
11 -14 114 0
11 14 -114 0
-114 -15 -115 0
-114 15 115 0
114 -15 115 0
114 15 -115 0
-115 -17 -116 0
-115 17 116 0
115 -17 116 0
115 17 -116 0
-116 -18 -117 0
-116 18 117 0
116 -18 117 0
116 18 -117 0
-117 -19 -118 0
-117 19 118 0
117 -19 118 0
117 19 -118 0
-118 -21 -119 0
-118 21 119 0
118 -21 119 0
118 21 -119 0
-119 -24 -120 0
-119 24 120 0
119 -24 120 0
119 24 -120 0
-120 -25 -121 0
-120 25 121 0
120 -25 121 0
120 25 -121 0
-121 -27 -122 0
-121 27 122 0
121 -27 122 0
121 27 -122 0
-122 -28 -123 0
-122 28 123 0
122 -28 123 0
122 28 -123 0
-123 -29 -124 0
-123 29 124 0
123 -29 124 0
123 29 -124 0
-124 -31 -125 0
-124 31 125 0
124 -31 125 0
124 31 -125 0
-125 -34 -126 0
-125 34 126 0
125 -34 126 0
125 34 -126 0
-126 -35 -127 0
-126 35 127 0
126 -35 127 0
126 35 -127 0
-127 -37 -128 0
-127 37 128 0
127 -37 128 0
127 37 -128 0
-128 -38 -129 0
-128 38 129 0
128 -38 129 0
128 38 -129 0
-129 -39 -130 0
-129 39 130 0
129 -39 130 0
129 39 -130 0
113 130 0
-1 -2 -131 0
-1 2 131 0
1 -2 131 0
1 2 -131 0
-131 -4 -132 0
-131 4 132 0
131 -4 132 0
131 4 -132 0
-132 -6 -133 0
-132 6 133 0
132 -6 133 0
132 6 -133 0
-133 -7 -134 0
-133 7 134 0
133 -7 134 0
133 7 -134 0
-134 -10 -135 0
-134 10 135 0
134 -10 135 0
134 10 -135 0
-11 -12 -136 0
-11 12 136 0
11 -12 136 0
11 12 -136 0
-136 -14 -137 0
-136 14 137 0
136 -14 137 0
136 14 -137 0
-137 -16 -138 0
-137 16 138 0
137 -16 138 0
137 16 -138 0
-138 -17 -139 0
-138 17 139 0
138 -17 139 0
138 17 -139 0
-139 -20 -140 0
-139 20 140 0
139 -20 140 0
139 20 -140 0
-140 -21 -141 0
-140 21 141 0
140 -21 141 0
140 21 -141 0
-141 -22 -142 0
-141 22 142 0
141 -22 142 0
141 22 -142 0
-142 -24 -143 0
-142 24 143 0
142 -24 143 0
142 24 -143 0
-143 -26 -144 0
-143 26 144 0
143 -26 144 0
143 26 -144 0
-144 -27 -145 0
-144 27 145 0
144 -27 145 0
144 27 -145 0
-145 -30 -146 0
-145 30 146 0
145 -30 146 0
145 30 -146 0
-146 -31 -147 0
-146 31 147 0
146 -31 147 0
146 31 -147 0
-147 -32 -148 0
-147 32 148 0
147 -32 148 0
147 32 -148 0
-148 -34 -149 0
-148 34 149 0
148 -34 149 0
148 34 -149 0
-149 -36 -150 0
-149 36 150 0
149 -36 150 0
149 36 -150 0
-150 -37 -151 0
-150 37 151 0
150 -37 151 0
150 37 -151 0
-151 -40 -152 0
-151 40 152 0
151 -40 152 0
151 40 -152 0
135 152 0
-1 -2 -153 0
-1 2 153 0
1 -2 153 0
1 2 -153 0
-153 -3 -154 0
-153 3 154 0
153 -3 154 0
153 3 -154 0
-154 -6 -155 0
-154 6 155 0
154 -6 155 0
154 6 -155 0
-155 -8 -156 0
-155 8 156 0
155 -8 156 0
155 8 -156 0
-156 -10 -157 0
-156 10 157 0
156 -10 157 0
156 10 -157 0
-31 -32 -158 0
-31 32 158 0
31 -32 158 0
31 32 -158 0
-158 -33 -159 0
-158 33 159 0
158 -33 159 0
158 33 -159 0
-159 -36 -160 0
-159 36 160 0
159 -36 160 0
159 36 -160 0
-160 -38 -161 0
-160 38 161 0
160 -38 161 0
160 38 -161 0
-161 -40 -162 0
-161 40 162 0
161 -40 162 0
161 40 -162 0
157 162 0
-1 -3 -163 0
-1 3 163 0
1 -3 163 0
1 3 -163 0
-163 -4 -164 0
-163 4 164 0
163 -4 164 0
163 4 -164 0
-164 -6 -165 0
-164 6 165 0
164 -6 165 0
164 6 -165 0
-165 -8 -166 0
-165 8 166 0
165 -8 166 0
165 8 -166 0
-166 -10 -167 0
-166 10 167 0
166 -10 167 0
166 10 -167 0
-11 -13 -168 0
-11 13 168 0
11 -13 168 0
11 13 -168 0
-168 -14 -169 0
-168 14 169 0
168 -14 169 0
168 14 -169 0
-169 -16 -170 0
-169 16 170 0
169 -16 170 0
169 16 -170 0
-170 -18 -171 0
-170 18 171 0
170 -18 171 0
170 18 -171 0
-171 -20 -172 0
-171 20 172 0
171 -20 172 0
171 20 -172 0
167 172 0
-1 -4 -173 0
-1 4 173 0
1 -4 173 0
1 4 -173 0
-173 -6 -174 0
-173 6 174 0
173 -6 174 0
173 6 -174 0
-174 -7 -175 0
-174 7 175 0
174 -7 175 0
174 7 -175 0
-175 -8 -176 0
-175 8 176 0
175 -8 176 0
175 8 -176 0
-176 -10 -177 0
-176 10 177 0
176 -10 177 0
176 10 -177 0
-21 -24 -178 0
-21 24 178 0
21 -24 178 0
21 24 -178 0
-178 -26 -179 0
-178 26 179 0
178 -26 179 0
178 26 -179 0
-179 -27 -180 0
-179 27 180 0
179 -27 180 0
179 27 -180 0
-180 -28 -181 0
-180 28 181 0
180 -28 181 0
180 28 -181 0
-181 -30 -182 0
-181 30 182 0
181 -30 182 0
181 30 -182 0
177 182 0
-1 -3 -183 0
-1 3 183 0
1 -3 183 0
1 3 -183 0
-183 -5 -184 0
-183 5 184 0
183 -5 184 0
183 5 -184 0
-184 -6 -185 0
-184 6 185 0
184 -6 185 0
184 6 -185 0
-185 -9 -186 0
-185 9 186 0
185 -9 186 0
185 9 -186 0
-186 -10 -187 0
-186 10 187 0
186 -10 187 0
186 10 -187 0
-11 -13 -188 0
-11 13 188 0
11 -13 188 0
11 13 -188 0
-188 -15 -189 0
-188 15 189 0
188 -15 189 0
188 15 -189 0
-189 -16 -190 0
-189 16 190 0
189 -16 190 0
189 16 -190 0
-190 -19 -191 0
-190 19 191 0
190 -19 191 0
190 19 -191 0
-191 -20 -192 0
-191 20 192 0
191 -20 192 0
191 20 -192 0
-192 -31 -193 0
-192 31 193 0
192 -31 193 0
192 31 -193 0
-193 -33 -194 0
-193 33 194 0
193 -33 194 0
193 33 -194 0
-194 -35 -195 0
-194 35 195 0
194 -35 195 0
194 35 -195 0
-195 -36 -196 0
-195 36 196 0
195 -36 196 0
195 36 -196 0
-196 -39 -197 0
-196 39 197 0
196 -39 197 0
196 39 -197 0
-197 -40 -198 0
-197 40 198 0
197 -40 198 0
197 40 -198 0
187 198 0
-2 -4 -199 0
-2 4 199 0
2 -4 199 0
2 4 -199 0
-199 -5 -200 0
-199 5 200 0
199 -5 200 0
199 5 -200 0
-200 -6 -201 0
-200 6 201 0
200 -6 201 0
200 6 -201 0
-201 -9 -202 0
-201 9 202 0
201 -9 202 0
201 9 -202 0
-202 -10 -203 0
-202 10 203 0
202 -10 203 0
202 10 -203 0
-32 -34 -204 0
-32 34 204 0
32 -34 204 0
32 34 -204 0
-204 -35 -205 0
-204 35 205 0
204 -35 205 0
204 35 -205 0
-205 -36 -206 0
-205 36 206 0
205 -36 206 0
205 36 -206 0
-206 -39 -207 0
-206 39 207 0
206 -39 207 0
206 39 -207 0
-207 -40 -208 0
-207 40 208 0
207 -40 208 0
207 40 -208 0
203 208 0
-1 -5 -209 0
-1 5 209 0
1 -5 209 0
1 5 -209 0
-209 -6 -210 0
-209 6 210 0
209 -6 210 0
209 6 -210 0
-210 -7 -211 0
-210 7 211 0
210 -7 211 0
210 7 -211 0
-211 -9 -212 0
-211 9 212 0
211 -9 212 0
211 9 -212 0
-212 -10 -213 0
-212 10 213 0
212 -10 213 0
212 10 -213 0
-21 -25 -214 0
-21 25 214 0
21 -25 214 0
21 25 -214 0
-214 -26 -215 0
-214 26 215 0
214 -26 215 0
214 26 -215 0
-215 -27 -216 0
-215 27 216 0
215 -27 216 0
215 27 -216 0
-216 -29 -217 0
-216 29 217 0
216 -29 217 0
216 29 -217 0
-217 -30 -218 0
-217 30 218 0
217 -30 218 0
217 30 -218 0
-218 -31 -219 0
-218 31 219 0
218 -31 219 0
218 31 -219 0
-219 -35 -220 0
-219 35 220 0
219 -35 220 0
219 35 -220 0
-220 -36 -221 0
-220 36 221 0
220 -36 221 0
220 36 -221 0
-221 -37 -222 0
-221 37 222 0
221 -37 222 0
221 37 -222 0
-222 -39 -223 0
-222 39 223 0
222 -39 223 0
222 39 -223 0
-223 -40 -224 0
-223 40 224 0
223 -40 224 0
223 40 -224 0
213 224 0
-1 -2 -225 0
-1 2 225 0
1 -2 225 0
1 2 -225 0
-225 -4 -226 0
-225 4 226 0
225 -4 226 0
225 4 -226 0
-226 -5 -227 0
-226 5 227 0
226 -5 227 0
226 5 -227 0
-227 -6 -228 0
-227 6 228 0
227 -6 228 0
227 6 -228 0
-228 -7 -229 0
-228 7 229 0
228 -7 229 0
228 7 -229 0
-229 -9 -230 0
-229 9 230 0
229 -9 230 0
229 9 -230 0
-230 -10 -231 0
-230 10 231 0
230 -10 231 0
230 10 -231 0
-11 -12 -232 0
-11 12 232 0
11 -12 232 0
11 12 -232 0
-232 -14 -233 0
-232 14 233 0
232 -14 233 0
232 14 -233 0
-233 -15 -234 0
-233 15 234 0
233 -15 234 0
233 15 -234 0
-234 -16 -235 0
-234 16 235 0
234 -16 235 0
234 16 -235 0
-235 -17 -236 0
-235 17 236 0
235 -17 236 0
235 17 -236 0
-236 -19 -237 0
-236 19 237 0
236 -19 237 0
236 19 -237 0
-237 -20 -238 0
-237 20 238 0
237 -20 238 0
237 20 -238 0
-238 -31 -239 0
-238 31 239 0
238 -31 239 0
238 31 -239 0
-239 -32 -240 0
-239 32 240 0
239 -32 240 0
239 32 -240 0
-240 -34 -241 0
-240 34 241 0
240 -34 241 0
240 34 -241 0
-241 -35 -242 0
-241 35 242 0
241 -35 242 0
241 35 -242 0
-242 -36 -243 0
-242 36 243 0
242 -36 243 0
242 36 -243 0
-243 -37 -244 0
-243 37 244 0
243 -37 244 0
243 37 -244 0
-244 -39 -245 0
-244 39 245 0
244 -39 245 0
244 39 -245 0
-245 -40 -246 0
-245 40 246 0
245 -40 246 0
245 40 -246 0
231 246 0
-2 -3 -247 0
-2 3 247 0
2 -3 247 0
2 3 -247 0
-247 -4 -248 0
-247 4 248 0
247 -4 248 0
247 4 -248 0
-248 -5 -249 0
-248 5 249 0
248 -5 249 0
248 5 -249 0
-249 -6 -250 0
-249 6 250 0
249 -6 250 0
249 6 -250 0
-250 -7 -251 0
-250 7 251 0
250 -7 251 0
250 7 -251 0
-251 -9 -252 0
-251 9 252 0
251 -9 252 0
251 9 -252 0
-252 -10 -253 0
-252 10 253 0
252 -10 253 0
252 10 -253 0
-12 -13 -254 0
-12 13 254 0
12 -13 254 0
12 13 -254 0
-254 -14 -255 0
-254 14 255 0
254 -14 255 0
254 14 -255 0
-255 -15 -256 0
-255 15 256 0
255 -15 256 0
255 15 -256 0
-256 -16 -257 0
-256 16 257 0
256 -16 257 0
256 16 -257 0
-257 -17 -258 0
-257 17 258 0
257 -17 258 0
257 17 -258 0
-258 -19 -259 0
-258 19 259 0
258 -19 259 0
258 19 -259 0
-259 -20 -260 0
-259 20 260 0
259 -20 260 0
259 20 -260 0
253 260 0
-2 -5 -261 0
-2 5 261 0
2 -5 261 0
2 5 -261 0
-261 -6 -262 0
-261 6 262 0
261 -6 262 0
261 6 -262 0
-262 -8 -263 0
-262 8 263 0
262 -8 263 0
262 8 -263 0
-263 -9 -264 0
-263 9 264 0
263 -9 264 0
263 9 -264 0
-264 -10 -265 0
-264 10 265 0
264 -10 265 0
264 10 -265 0
-12 -15 -266 0
-12 15 266 0
12 -15 266 0
12 15 -266 0
-266 -16 -267 0
-266 16 267 0
266 -16 267 0
266 16 -267 0
-267 -18 -268 0
-267 18 268 0
267 -18 268 0
267 18 -268 0
-268 -19 -269 0
-268 19 269 0
268 -19 269 0
268 19 -269 0
-269 -20 -270 0
-269 20 270 0
269 -20 270 0
269 20 -270 0
-270 -22 -271 0
-270 22 271 0
270 -22 271 0
270 22 -271 0
-271 -25 -272 0
-271 25 272 0
271 -25 272 0
271 25 -272 0
-272 -26 -273 0
-272 26 273 0
272 -26 273 0
272 26 -273 0
-273 -28 -274 0
-273 28 274 0
273 -28 274 0
273 28 -274 0
-274 -29 -275 0
-274 29 275 0
274 -29 275 0
274 29 -275 0
-275 -30 -276 0
-275 30 276 0
275 -30 276 0
275 30 -276 0
-276 -32 -277 0
-276 32 277 0
276 -32 277 0
276 32 -277 0
-277 -35 -278 0
-277 35 278 0
277 -35 278 0
277 35 -278 0
-278 -36 -279 0
-278 36 279 0
278 -36 279 0
278 36 -279 0
-279 -38 -280 0
-279 38 280 0
279 -38 280 0
279 38 -280 0
-280 -39 -281 0
-280 39 281 0
280 -39 281 0
280 39 -281 0
-281 -40 -282 0
-281 40 282 0
281 -40 282 0
281 40 -282 0
265 282 0
-1 -2 -283 0
-1 2 283 0
1 -2 283 0
1 2 -283 0
-283 -3 -284 0
-283 3 284 0
283 -3 284 0
283 3 -284 0
-284 -5 -285 0
-284 5 285 0
284 -5 285 0
284 5 -285 0
-285 -6 -286 0
-285 6 286 0
285 -6 286 0
285 6 -286 0
-286 -8 -287 0
-286 8 287 0
286 -8 287 0
286 8 -287 0
-287 -9 -288 0
-287 9 288 0
287 -9 288 0
287 9 -288 0
-288 -10 -289 0
-288 10 289 0
288 -10 289 0
288 10 -289 0
-21 -22 -290 0
-21 22 290 0
21 -22 290 0
21 22 -290 0
-290 -23 -291 0
-290 23 291 0
290 -23 291 0
290 23 -291 0
-291 -25 -292 0
-291 25 292 0
291 -25 292 0
291 25 -292 0
-292 -26 -293 0
-292 26 293 0
292 -26 293 0
292 26 -293 0
-293 -28 -294 0
-293 28 294 0
293 -28 294 0
293 28 -294 0
-294 -29 -295 0
-294 29 295 0
294 -29 295 0
294 29 -295 0
-295 -30 -296 0
-295 30 296 0
295 -30 296 0
295 30 -296 0
-296 -31 -297 0
-296 31 297 0
296 -31 297 0
296 31 -297 0
-297 -32 -298 0
-297 32 298 0
297 -32 298 0
297 32 -298 0
-298 -33 -299 0
-298 33 299 0
298 -33 299 0
298 33 -299 0
-299 -35 -300 0
-299 35 300 0
299 -35 300 0
299 35 -300 0
-300 -36 -301 0
-300 36 301 0
300 -36 301 0
300 36 -301 0
-301 -38 -302 0
-301 38 302 0
301 -38 302 0
301 38 -302 0
-302 -39 -303 0
-302 39 303 0
302 -39 303 0
302 39 -303 0
-303 -40 -304 0
-303 40 304 0
303 -40 304 0
303 40 -304 0
289 304 0
-2 -3 -305 0
-2 3 305 0
2 -3 305 0
2 3 -305 0
-305 -5 -306 0
-305 5 306 0
305 -5 306 0
305 5 -306 0
-306 -6 -307 0
-306 6 307 0
306 -6 307 0
306 6 -307 0
-307 -7 -308 0
-307 7 308 0
307 -7 308 0
307 7 -308 0
-308 -8 -309 0
-308 8 309 0
308 -8 309 0
308 8 -309 0
-309 -9 -310 0
-309 9 310 0
309 -9 310 0
309 9 -310 0
-310 -10 -311 0
-310 10 311 0
310 -10 311 0
310 10 -311 0
-22 -23 -312 0
-22 23 312 0
22 -23 312 0
22 23 -312 0
-312 -25 -313 0
-312 25 313 0
312 -25 313 0
312 25 -313 0
-313 -26 -314 0
-313 26 314 0
313 -26 314 0
313 26 -314 0
-314 -27 -315 0
-314 27 315 0
314 -27 315 0
314 27 -315 0
-315 -28 -316 0
-315 28 316 0
315 -28 316 0
315 28 -316 0
-316 -29 -317 0
-316 29 317 0
316 -29 317 0
316 29 -317 0
-317 -30 -318 0
-317 30 318 0
317 -30 318 0
317 30 -318 0
311 318 0
-1 -2 -319 0
-1 2 319 0
1 -2 319 0
1 2 -319 0
-319 -7 -320 0
-319 7 320 0
319 -7 320 0
319 7 -320 0
-320 -11 -321 0
-320 11 321 0
320 -11 321 0
320 11 -321 0
-321 -12 -322 0
-321 12 322 0
321 -12 322 0
321 12 -322 0
-322 -17 -323 0
-322 17 323 0
322 -17 323 0
322 17 -323 0
-1 -2 -324 0
-1 2 324 0
1 -2 324 0
1 2 -324 0
-324 -7 -325 0
-324 7 325 0
324 -7 325 0
324 7 -325 0
-325 -31 -326 0
-325 31 326 0
325 -31 326 0
325 31 -326 0
-326 -32 -327 0
-326 32 327 0
326 -32 327 0
326 32 -327 0
-327 -37 -328 0
-327 37 328 0
327 -37 328 0
327 37 -328 0
323 328 0
-2 -3 -329 0
-2 3 329 0
2 -3 329 0
2 3 -329 0
-329 -4 -330 0
-329 4 330 0
329 -4 330 0
329 4 -330 0
-330 -5 -331 0
-330 5 331 0
330 -5 331 0
330 5 -331 0
-331 -7 -332 0
-331 7 332 0
331 -7 332 0
331 7 -332 0
-332 -12 -333 0
-332 12 333 0
332 -12 333 0
332 12 -333 0
-333 -13 -334 0
-333 13 334 0
333 -13 334 0
333 13 -334 0
-334 -14 -335 0
-334 14 335 0
334 -14 335 0
334 14 -335 0
-335 -15 -336 0
-335 15 336 0
335 -15 336 0
335 15 -336 0
-336 -17 -337 0
-336 17 337 0
336 -17 337 0
336 17 -337 0
-22 -23 -338 0
-22 23 338 0
22 -23 338 0
22 23 -338 0
-338 -24 -339 0
-338 24 339 0
338 -24 339 0
338 24 -339 0
-339 -25 -340 0
-339 25 340 0
339 -25 340 0
339 25 -340 0
-340 -27 -341 0
-340 27 341 0
340 -27 341 0
340 27 -341 0
337 341 0
-1 -5 -342 0
-1 5 342 0
1 -5 342 0
1 5 -342 0
-342 -6 -343 0
-342 6 343 0
342 -6 343 0
342 6 -343 0
-343 -8 -344 0
-343 8 344 0
343 -8 344 0
343 8 -344 0
-344 -11 -345 0
-344 11 345 0
344 -11 345 0
344 11 -345 0
-345 -15 -346 0
-345 15 346 0
345 -15 346 0
345 15 -346 0
-346 -16 -347 0
-346 16 347 0
346 -16 347 0
346 16 -347 0
-347 -18 -348 0
-347 18 348 0
347 -18 348 0
347 18 -348 0
-31 -35 -349 0
-31 35 349 0
31 -35 349 0
31 35 -349 0
-349 -36 -350 0
-349 36 350 0
349 -36 350 0
349 36 -350 0
-350 -38 -351 0
-350 38 351 0
350 -38 351 0
350 38 -351 0
348 351 0
-11 -12 -352 0
-11 12 352 0
11 -12 352 0
11 12 -352 0
-352 -14 -353 0
-352 14 353 0
352 -14 353 0
352 14 -353 0
-353 -15 -354 0
-353 15 354 0
353 -15 354 0
353 15 -354 0
-354 -16 -355 0
-354 16 355 0
354 -16 355 0
354 16 -355 0
-355 -18 -356 0
-355 18 356 0
355 -18 356 0
355 18 -356 0
-1 -2 -357 0
-1 2 357 0
1 -2 357 0
1 2 -357 0
-357 -4 -358 0
-357 4 358 0
357 -4 358 0
357 4 -358 0
-358 -5 -359 0
-358 5 359 0
358 -5 359 0
358 5 -359 0
-359 -6 -360 0
-359 6 360 0
359 -6 360 0
359 6 -360 0
-360 -8 -361 0
-360 8 361 0
360 -8 361 0
360 8 -361 0
-361 -21 -362 0
-361 21 362 0
361 -21 362 0
361 21 -362 0
-362 -22 -363 0
-362 22 363 0
362 -22 363 0
362 22 -363 0
-363 -24 -364 0
-363 24 364 0
363 -24 364 0
363 24 -364 0
-364 -25 -365 0
-364 25 365 0
364 -25 365 0
364 25 -365 0
-365 -26 -366 0
-365 26 366 0
365 -26 366 0
365 26 -366 0
-366 -28 -367 0
-366 28 367 0
366 -28 367 0
366 28 -367 0
-367 -31 -368 0
-367 31 368 0
367 -31 368 0
367 31 -368 0
-368 -32 -369 0
-368 32 369 0
368 -32 369 0
368 32 -369 0
-369 -34 -370 0
-369 34 370 0
369 -34 370 0
369 34 -370 0
-370 -35 -371 0
-370 35 371 0
370 -35 371 0
370 35 -371 0
-371 -36 -372 0
-371 36 372 0
371 -36 372 0
371 36 -372 0
-372 -38 -373 0
-372 38 373 0
372 -38 373 0
372 38 -373 0
356 373 0
-11 -17 -374 0
-11 17 374 0
11 -17 374 0
11 17 -374 0
-374 -18 -375 0
-374 18 375 0
374 -18 375 0
374 18 -375 0
-21 -27 -376 0
-21 27 376 0
21 -27 376 0
21 27 -376 0
-376 -28 -377 0
-376 28 377 0
376 -28 377 0
376 28 -377 0
-377 -31 -378 0
-377 31 378 0
377 -31 378 0
377 31 -378 0
-378 -37 -379 0
-378 37 379 0
378 -37 379 0
378 37 -379 0
-379 -38 -380 0
-379 38 380 0
379 -38 380 0
379 38 -380 0
375 380 0
-12 -14 -381 0
-12 14 381 0
12 -14 381 0
12 14 -381 0
-381 -16 -382 0
-381 16 382 0
381 -16 382 0
381 16 -382 0
-382 -17 -383 0
-382 17 383 0
382 -17 383 0
382 17 -383 0
-383 -18 -384 0
-383 18 384 0
383 -18 384 0
383 18 -384 0
-2 -4 -385 0
-2 4 385 0
2 -4 385 0
2 4 -385 0
-385 -6 -386 0
-385 6 386 0
385 -6 386 0
385 6 -386 0
-386 -7 -387 0
-386 7 387 0
386 -7 387 0
386 7 -387 0
-387 -8 -388 0
-387 8 388 0
387 -8 388 0
387 8 -388 0
-388 -22 -389 0
-388 22 389 0
388 -22 389 0
388 22 -389 0
-389 -24 -390 0
-389 24 390 0
389 -24 390 0
389 24 -390 0
-390 -26 -391 0
-390 26 391 0
390 -26 391 0
390 26 -391 0
-391 -27 -392 0
-391 27 392 0
391 -27 392 0
391 27 -392 0
-392 -28 -393 0
-392 28 393 0
392 -28 393 0
392 28 -393 0
384 393 0
-2 -3 -394 0
-2 3 394 0
2 -3 394 0
2 3 -394 0
-394 -9 -395 0
-394 9 395 0
394 -9 395 0
394 9 -395 0
-395 -12 -396 0
-395 12 396 0
395 -12 396 0
395 12 -396 0
-396 -13 -397 0
-396 13 397 0
396 -13 397 0
396 13 -397 0
-397 -19 -398 0
-397 19 398 0
397 -19 398 0
397 19 -398 0
-32 -33 -399 0
-32 33 399 0
32 -33 399 0
32 33 -399 0
-399 -39 -400 0
-399 39 400 0
399 -39 400 0
399 39 -400 0
398 400 0
-1 -6 -401 0
-1 6 401 0
1 -6 401 0
1 6 -401 0
-401 -9 -402 0
-401 9 402 0
401 -9 402 0
401 9 -402 0
-402 -11 -403 0
-402 11 403 0
402 -11 403 0
402 11 -403 0
-403 -16 -404 0
-403 16 404 0
403 -16 404 0
403 16 -404 0
-404 -19 -405 0
-404 19 405 0
404 -19 405 0
404 19 -405 0
-1 -6 -406 0
-1 6 406 0
1 -6 406 0
1 6 -406 0
-406 -9 -407 0
-406 9 407 0
406 -9 407 0
406 9 -407 0
-407 -21 -408 0
-407 21 408 0
407 -21 408 0
407 21 -408 0
-408 -26 -409 0
-408 26 409 0
408 -26 409 0
408 26 -409 0
-409 -29 -410 0
-409 29 410 0
409 -29 410 0
409 29 -410 0
-410 -31 -411 0
-410 31 411 0
410 -31 411 0
410 31 -411 0
-411 -36 -412 0
-411 36 412 0
411 -36 412 0
411 36 -412 0
-412 -39 -413 0
-412 39 413 0
412 -39 413 0
412 39 -413 0
405 413 0
-11 -14 -414 0
-11 14 414 0
11 -14 414 0
11 14 -414 0
-414 -15 -415 0
-414 15 415 0
414 -15 415 0
414 15 -415 0
-415 -16 -416 0
-415 16 416 0
415 -16 416 0
415 16 -416 0
-416 -19 -417 0
-416 19 417 0
416 -19 417 0
416 19 -417 0
-31 -34 -418 0
-31 34 418 0
31 -34 418 0
31 34 -418 0
-418 -35 -419 0
-418 35 419 0
418 -35 419 0
418 35 -419 0
-419 -36 -420 0
-419 36 420 0
419 -36 420 0
419 36 -420 0
-420 -39 -421 0
-420 39 421 0
420 -39 421 0
420 39 -421 0
417 421 0
-11 -12 -422 0
-11 12 422 0
11 -12 422 0
11 12 -422 0
-422 -17 -423 0
-422 17 423 0
422 -17 423 0
422 17 -423 0
-423 -19 -424 0
-423 19 424 0
423 -19 424 0
423 19 -424 0
-21 -22 -425 0
-21 22 425 0
21 -22 425 0
21 22 -425 0
-425 -27 -426 0
-425 27 426 0
425 -27 426 0
425 27 -426 0
-426 -29 -427 0
-426 29 427 0
426 -29 427 0
426 29 -427 0
-427 -31 -428 0
-427 31 428 0
427 -31 428 0
427 31 -428 0
-428 -32 -429 0
-428 32 429 0
428 -32 429 0
428 32 -429 0
-429 -37 -430 0
-429 37 430 0
429 -37 430 0
429 37 -430 0
-430 -39 -431 0
-430 39 431 0
430 -39 431 0
430 39 -431 0
424 431 0
-12 -14 -432 0
-12 14 432 0
12 -14 432 0
12 14 -432 0
-432 -15 -433 0
-432 15 433 0
432 -15 433 0
432 15 -433 0
-433 -17 -434 0
-433 17 434 0
433 -17 434 0
433 17 -434 0
-434 -19 -435 0
-434 19 435 0
434 -19 435 0
434 19 -435 0
-2 -4 -436 0
-2 4 436 0
2 -4 436 0
2 4 -436 0
-436 -5 -437 0
-436 5 437 0
436 -5 437 0
436 5 -437 0
-437 -7 -438 0
-437 7 438 0
437 -7 438 0
437 7 -438 0
-438 -9 -439 0
-438 9 439 0
438 -9 439 0
438 9 -439 0
-439 -32 -440 0
-439 32 440 0
439 -32 440 0
439 32 -440 0
-440 -34 -441 0
-440 34 441 0
440 -34 441 0
440 34 -441 0
-441 -35 -442 0
-441 35 442 0
441 -35 442 0
441 35 -442 0
-442 -37 -443 0
-442 37 443 0
442 -37 443 0
442 37 -443 0
-443 -39 -444 0
-443 39 444 0
443 -39 444 0
443 39 -444 0
435 444 0
-2 -6 -445 0
-2 6 445 0
2 -6 445 0
2 6 -445 0
-445 -7 -446 0
-445 7 446 0
445 -7 446 0
445 7 -446 0
-446 -9 -447 0
-446 9 447 0
446 -9 447 0
446 9 -447 0
-447 -12 -448 0
-447 12 448 0
447 -12 448 0
447 12 -448 0
-448 -16 -449 0
-448 16 449 0
448 -16 449 0
448 16 -449 0
-449 -17 -450 0
-449 17 450 0
449 -17 450 0
449 17 -450 0
-450 -19 -451 0
-450 19 451 0
450 -19 451 0
450 19 -451 0
-22 -26 -452 0
-22 26 452 0
22 -26 452 0
22 26 -452 0
-452 -27 -453 0
-452 27 453 0
452 -27 453 0
452 27 -453 0
-453 -29 -454 0
-453 29 454 0
453 -29 454 0
453 29 -454 0
-454 -32 -455 0
-454 32 455 0
454 -32 455 0
454 32 -455 0
-455 -36 -456 0
-455 36 456 0
455 -36 456 0
455 36 -456 0
-456 -37 -457 0
-456 37 457 0
456 -37 457 0
456 37 -457 0
-457 -39 -458 0
-457 39 458 0
457 -39 458 0
457 39 -458 0
451 458 0
-12 -18 -459 0
-12 18 459 0
12 -18 459 0
12 18 -459 0
-459 -19 -460 0
-459 19 460 0
459 -19 460 0
459 19 -460 0
-22 -28 -461 0
-22 28 461 0
22 -28 461 0
22 28 -461 0
-461 -29 -462 0
-461 29 462 0
461 -29 462 0
461 29 -462 0
-462 -32 -463 0
-462 32 463 0
462 -32 463 0
462 32 -463 0
-463 -38 -464 0
-463 38 464 0
463 -38 464 0
463 38 -464 0
-464 -39 -465 0
-464 39 465 0
464 -39 465 0
464 39 -465 0
460 465 0
-1 -3 -466 0
-1 3 466 0
1 -3 466 0
1 3 -466 0
-466 -4 -467 0
-466 4 467 0
466 -4 467 0
466 4 -467 0
-467 -8 -468 0
-467 8 468 0
467 -8 468 0
467 8 -468 0
-468 -9 -469 0
-468 9 469 0
468 -9 469 0
468 9 -469 0
-469 -11 -470 0
-469 11 470 0
469 -11 470 0
469 11 -470 0
-470 -13 -471 0
-470 13 471 0
470 -13 471 0
470 13 -471 0
-471 -14 -472 0
-471 14 472 0
471 -14 472 0
471 14 -472 0
-472 -18 -473 0
-472 18 473 0
472 -18 473 0
472 18 -473 0
-473 -19 -474 0
-473 19 474 0
473 -19 474 0
473 19 -474 0
-1 -3 -475 0
-1 3 475 0
1 -3 475 0
1 3 -475 0
-475 -4 -476 0
-475 4 476 0
475 -4 476 0
475 4 -476 0
-476 -8 -477 0
-476 8 477 0
476 -8 477 0
476 8 -477 0
-477 -9 -478 0
-477 9 478 0
477 -9 478 0
477 9 -478 0
-478 -21 -479 0
-478 21 479 0
478 -21 479 0
478 21 -479 0
-479 -23 -480 0
-479 23 480 0
479 -23 480 0
479 23 -480 0
-480 -24 -481 0
-480 24 481 0
480 -24 481 0
480 24 -481 0
-481 -28 -482 0
-481 28 482 0
481 -28 482 0
481 28 -482 0
-482 -29 -483 0
-482 29 483 0
482 -29 483 0
482 29 -483 0
474 483 0
-1 -2 -484 0
-1 2 484 0
1 -2 484 0
1 2 -484 0
-484 -3 -485 0
-484 3 485 0
484 -3 485 0
484 3 -485 0
-485 -5 -486 0
-485 5 486 0
485 -5 486 0
485 5 -486 0
-486 -6 -487 0
-486 6 487 0
486 -6 487 0
486 6 -487 0
-487 -8 -488 0
-487 8 488 0
487 -8 488 0
487 8 -488 0
-488 -9 -489 0
-488 9 489 0
488 -9 489 0
488 9 -489 0
-489 -11 -490 0
-489 11 490 0
489 -11 490 0
489 11 -490 0
-490 -12 -491 0
-490 12 491 0
490 -12 491 0
490 12 -491 0
-491 -13 -492 0
-491 13 492 0
491 -13 492 0
491 13 -492 0
-492 -15 -493 0
-492 15 493 0
492 -15 493 0
492 15 -493 0
-493 -16 -494 0
-493 16 494 0
493 -16 494 0
493 16 -494 0
-494 -18 -495 0
-494 18 495 0
494 -18 495 0
494 18 -495 0
-495 -19 -496 0
-495 19 496 0
495 -19 496 0
495 19 -496 0
-31 -32 -497 0
-31 32 497 0
31 -32 497 0
31 32 -497 0
-497 -33 -498 0
-497 33 498 0
497 -33 498 0
497 33 -498 0
-498 -35 -499 0
-498 35 499 0
498 -35 499 0
498 35 -499 0
-499 -36 -500 0
-499 36 500 0
499 -36 500 0
499 36 -500 0
-500 -38 -501 0
-500 38 501 0
500 -38 501 0
500 38 -501 0
-501 -39 -502 0
-501 39 502 0
501 -39 502 0
501 39 -502 0
496 502 0
-11 -16 -503 0
-11 16 503 0
11 -16 503 0
11 16 -503 0
-503 -17 -504 0
-503 17 504 0
503 -17 504 0
503 17 -504 0
-504 -18 -505 0
-504 18 505 0
504 -18 505 0
504 18 -505 0
-505 -19 -506 0
-505 19 506 0
505 -19 506 0
505 19 -506 0
-21 -26 -507 0
-21 26 507 0
21 -26 507 0
21 26 -507 0
-507 -27 -508 0
-507 27 508 0
507 -27 508 0
507 27 -508 0
-508 -28 -509 0
-508 28 509 0
508 -28 509 0
508 28 -509 0
-509 -29 -510 0
-509 29 510 0
509 -29 510 0
509 29 -510 0
506 510 0
-1 -10 -511 0
-1 10 511 0
1 -10 511 0
1 10 -511 0
-511 -11 -512 0
-511 11 512 0
511 -11 512 0
511 11 -512 0
-512 -20 -513 0
-512 20 513 0
512 -20 513 0
512 20 -513 0
-1 -10 -514 0
-1 10 514 0
1 -10 514 0
1 10 -514 0
-514 -31 -515 0
-514 31 515 0
514 -31 515 0
514 31 -515 0
-515 -40 -516 0
-515 40 516 0
515 -40 516 0
515 40 -516 0
513 516 0
-12 -13 -517 0
-12 13 517 0
12 -13 517 0
12 13 -517 0
-517 -15 -518 0
-517 15 518 0
517 -15 518 0
517 15 -518 0
-518 -20 -519 0
-518 20 519 0
518 -20 519 0
518 20 -519 0
-32 -33 -520 0
-32 33 520 0
32 -33 520 0
32 33 -520 0
-520 -35 -521 0
-520 35 521 0
520 -35 521 0
520 35 -521 0
-521 -40 -522 0
-521 40 522 0
521 -40 522 0
521 40 -522 0
519 522 0
-2 -3 -523 0
-2 3 523 0
2 -3 523 0
2 3 -523 0
-523 -6 -524 0
-523 6 524 0
523 -6 524 0
523 6 -524 0
-524 -10 -525 0
-524 10 525 0
524 -10 525 0
524 10 -525 0
-525 -12 -526 0
-525 12 526 0
525 -12 526 0
525 12 -526 0
-526 -13 -527 0
-526 13 527 0
526 -13 527 0
526 13 -527 0
-527 -16 -528 0
-527 16 528 0
527 -16 528 0
527 16 -528 0
-528 -20 -529 0
-528 20 529 0
528 -20 529 0
528 20 -529 0
-2 -3 -530 0
-2 3 530 0
2 -3 530 0
2 3 -530 0
-530 -6 -531 0
-530 6 531 0
530 -6 531 0
530 6 -531 0
-531 -10 -532 0
-531 10 532 0
531 -10 532 0
531 10 -532 0
-532 -22 -533 0
-532 22 533 0
532 -22 533 0
532 22 -533 0
-533 -23 -534 0
-533 23 534 0
533 -23 534 0
533 23 -534 0
-534 -26 -535 0
-534 26 535 0
534 -26 535 0
534 26 -535 0
-535 -30 -536 0
-535 30 536 0
535 -30 536 0
535 30 -536 0
-536 -32 -537 0
-536 32 537 0
536 -32 537 0
536 32 -537 0
-537 -33 -538 0
-537 33 538 0
537 -33 538 0
537 33 -538 0
-538 -36 -539 0
-538 36 539 0
538 -36 539 0
538 36 -539 0
-539 -40 -540 0
-539 40 540 0
539 -40 540 0
539 40 -540 0
529 540 0
-2 -7 -541 0
-2 7 541 0
2 -7 541 0
2 7 -541 0
-541 -10 -542 0
-541 10 542 0
541 -10 542 0
541 10 -542 0
-542 -12 -543 0
-542 12 543 0
542 -12 543 0
542 12 -543 0
-543 -17 -544 0
-543 17 544 0
543 -17 544 0
543 17 -544 0
-544 -20 -545 0
-544 20 545 0
544 -20 545 0
544 20 -545 0
-2 -7 -546 0
-2 7 546 0
2 -7 546 0
2 7 -546 0
-546 -10 -547 0
-546 10 547 0
546 -10 547 0
546 10 -547 0
-547 -32 -548 0
-547 32 548 0
547 -32 548 0
547 32 -548 0
-548 -37 -549 0
-548 37 549 0
548 -37 549 0
548 37 -549 0
-549 -40 -550 0
-549 40 550 0
549 -40 550 0
549 40 -550 0
545 550 0
-11 -12 -551 0
-11 12 551 0
11 -12 551 0
11 12 -551 0
-551 -13 -552 0
-551 13 552 0
551 -13 552 0
551 13 -552 0
-552 -17 -553 0
-552 17 553 0
552 -17 553 0
552 17 -553 0
-553 -20 -554 0
-553 20 554 0
553 -20 554 0
553 20 -554 0
-21 -22 -555 0
-21 22 555 0
21 -22 555 0
21 22 -555 0
-555 -23 -556 0
-555 23 556 0
555 -23 556 0
555 23 -556 0
-556 -27 -557 0
-556 27 557 0
556 -27 557 0
556 27 -557 0
-557 -30 -558 0
-557 30 558 0
557 -30 558 0
557 30 -558 0
554 558 0
-11 -13 -559 0
-11 13 559 0
11 -13 559 0
11 13 -559 0
-559 -15 -560 0
-559 15 560 0
559 -15 560 0
559 15 -560 0
-560 -16 -561 0
-560 16 561 0
560 -16 561 0
560 16 -561 0
-561 -17 -562 0
-561 17 562 0
561 -17 562 0
561 17 -562 0
-562 -20 -563 0
-562 20 563 0
562 -20 563 0
562 20 -563 0
-1 -3 -564 0
-1 3 564 0
1 -3 564 0
1 3 -564 0
-564 -5 -565 0
-564 5 565 0
564 -5 565 0
564 5 -565 0
-565 -6 -566 0
-565 6 566 0
565 -6 566 0
565 6 -566 0
-566 -7 -567 0
-566 7 567 0
566 -7 567 0
566 7 -567 0
-567 -10 -568 0
-567 10 568 0
567 -10 568 0
567 10 -568 0
-568 -21 -569 0
-568 21 569 0
568 -21 569 0
568 21 -569 0
-569 -23 -570 0
-569 23 570 0
569 -23 570 0
569 23 -570 0
-570 -25 -571 0
-570 25 571 0
570 -25 571 0
570 25 -571 0
-571 -26 -572 0
-571 26 572 0
571 -26 572 0
571 26 -572 0
-572 -27 -573 0
-572 27 573 0
572 -27 573 0
572 27 -573 0
-573 -30 -574 0
-573 30 574 0
573 -30 574 0
573 30 -574 0
-574 -31 -575 0
-574 31 575 0
574 -31 575 0
574 31 -575 0
-575 -33 -576 0
-575 33 576 0
575 -33 576 0
575 33 -576 0
-576 -35 -577 0
-576 35 577 0
576 -35 577 0
576 35 -577 0
-577 -36 -578 0
-577 36 578 0
577 -36 578 0
577 36 -578 0
-578 -37 -579 0
-578 37 579 0
578 -37 579 0
578 37 -579 0
-579 -40 -580 0
-579 40 580 0
579 -40 580 0
579 40 -580 0
563 580 0
-1 -2 -581 0
-1 2 581 0
1 -2 581 0
1 2 -581 0
-581 -3 -582 0
-581 3 582 0
581 -3 582 0
581 3 -582 0
-582 -5 -583 0
-582 5 583 0
582 -5 583 0
582 5 -583 0
-583 -8 -584 0
-583 8 584 0
583 -8 584 0
583 8 -584 0
-584 -10 -585 0
-584 10 585 0
584 -10 585 0
584 10 -585 0
-585 -11 -586 0
-585 11 586 0
585 -11 586 0
585 11 -586 0
-586 -12 -587 0
-586 12 587 0
586 -12 587 0
586 12 -587 0
-587 -13 -588 0
-587 13 588 0
587 -13 588 0
587 13 -588 0
-588 -15 -589 0
-588 15 589 0
588 -15 589 0
588 15 -589 0
-589 -18 -590 0
-589 18 590 0
589 -18 590 0
589 18 -590 0
-590 -20 -591 0
-590 20 591 0
590 -20 591 0
590 20 -591 0
-1 -2 -592 0
-1 2 592 0
1 -2 592 0
1 2 -592 0
-592 -3 -593 0
-592 3 593 0
592 -3 593 0
592 3 -593 0
-593 -5 -594 0
-593 5 594 0
593 -5 594 0
593 5 -594 0
-594 -8 -595 0
-594 8 595 0
594 -8 595 0
594 8 -595 0
-595 -10 -596 0
-595 10 596 0
595 -10 596 0
595 10 -596 0
-596 -21 -597 0
-596 21 597 0
596 -21 597 0
596 21 -597 0
-597 -22 -598 0
-597 22 598 0
597 -22 598 0
597 22 -598 0
-598 -23 -599 0
-598 23 599 0
598 -23 599 0
598 23 -599 0
-599 -25 -600 0
-599 25 600 0
599 -25 600 0
599 25 -600 0
-600 -28 -601 0
-600 28 601 0
600 -28 601 0
600 28 -601 0
-601 -30 -602 0
-601 30 602 0
601 -30 602 0
601 30 -602 0
591 602 0
-12 -13 -603 0
-12 13 603 0
12 -13 603 0
12 13 -603 0
-603 -14 -604 0
-603 14 604 0
603 -14 604 0
603 14 -604 0
-604 -17 -605 0
-604 17 605 0
604 -17 605 0
604 17 -605 0
-605 -18 -606 0
-605 18 606 0
605 -18 606 0
605 18 -606 0
-606 -20 -607 0
-606 20 607 0
606 -20 607 0
606 20 -607 0
-2 -3 -608 0
-2 3 608 0
2 -3 608 0
2 3 -608 0
-608 -4 -609 0
-608 4 609 0
608 -4 609 0
608 4 -609 0
-609 -7 -610 0
-609 7 610 0
609 -7 610 0
609 7 -610 0
-610 -8 -611 0
-610 8 611 0
610 -8 611 0
610 8 -611 0
-611 -10 -612 0
-611 10 612 0
611 -10 612 0
611 10 -612 0
-612 -22 -613 0
-612 22 613 0
612 -22 613 0
612 22 -613 0
-613 -23 -614 0
-613 23 614 0
613 -23 614 0
613 23 -614 0
-614 -24 -615 0
-614 24 615 0
614 -24 615 0
614 24 -615 0
-615 -27 -616 0
-615 27 616 0
615 -27 616 0
615 27 -616 0
-616 -28 -617 0
-616 28 617 0
616 -28 617 0
616 28 -617 0
-617 -30 -618 0
-617 30 618 0
617 -30 618 0
617 30 -618 0
-618 -32 -619 0
-618 32 619 0
618 -32 619 0
618 32 -619 0
-619 -33 -620 0
-619 33 620 0
619 -33 620 0
619 33 -620 0
-620 -34 -621 0
-620 34 621 0
620 -34 621 0
620 34 -621 0
-621 -37 -622 0
-621 37 622 0
621 -37 622 0
621 37 -622 0
-622 -38 -623 0
-622 38 623 0
622 -38 623 0
622 38 -623 0
-623 -40 -624 0
-623 40 624 0
623 -40 624 0
623 40 -624 0
607 624 0
-11 -12 -625 0
-11 12 625 0
11 -12 625 0
11 12 -625 0
-625 -13 -626 0
-625 13 626 0
625 -13 626 0
625 13 -626 0
-626 -15 -627 0
-626 15 627 0
626 -15 627 0
626 15 -627 0
-627 -17 -628 0
-627 17 628 0
627 -17 628 0
627 17 -628 0
-628 -18 -629 0
-628 18 629 0
628 -18 629 0
628 18 -629 0
-629 -20 -630 0
-629 20 630 0
629 -20 630 0
629 20 -630 0
-1 -2 -631 0
-1 2 631 0
1 -2 631 0
1 2 -631 0
-631 -3 -632 0
-631 3 632 0
631 -3 632 0
631 3 -632 0
-632 -5 -633 0
-632 5 633 0
632 -5 633 0
632 5 -633 0
-633 -7 -634 0
-633 7 634 0
633 -7 634 0
633 7 -634 0
-634 -8 -635 0
-634 8 635 0
634 -8 635 0
634 8 -635 0
-635 -10 -636 0
-635 10 636 0
635 -10 636 0
635 10 -636 0
-636 -31 -637 0
-636 31 637 0
636 -31 637 0
636 31 -637 0
-637 -32 -638 0
-637 32 638 0
637 -32 638 0
637 32 -638 0
-638 -33 -639 0
-638 33 639 0
638 -33 639 0
638 33 -639 0
-639 -35 -640 0
-639 35 640 0
639 -35 640 0
639 35 -640 0
-640 -37 -641 0
-640 37 641 0
640 -37 641 0
640 37 -641 0
-641 -38 -642 0
-641 38 642 0
641 -38 642 0
641 38 -642 0
-642 -40 -643 0
-642 40 643 0
642 -40 643 0
642 40 -643 0
630 643 0
-1 -2 -644 0
-1 2 644 0
1 -2 644 0
1 2 -644 0
-644 -5 -645 0
-644 5 645 0
644 -5 645 0
644 5 -645 0
-645 -6 -646 0
-645 6 646 0
645 -6 646 0
645 6 -646 0
-646 -7 -647 0
-646 7 647 0
646 -7 647 0
646 7 -647 0
-647 -8 -648 0
-647 8 648 0
647 -8 648 0
647 8 -648 0
-648 -10 -649 0
-648 10 649 0
648 -10 649 0
648 10 -649 0
-649 -11 -650 0
-649 11 650 0
649 -11 650 0
649 11 -650 0
-650 -12 -651 0
-650 12 651 0
650 -12 651 0
650 12 -651 0
-651 -15 -652 0
-651 15 652 0
651 -15 652 0
651 15 -652 0
-652 -16 -653 0
-652 16 653 0
652 -16 653 0
652 16 -653 0
-653 -17 -654 0
-653 17 654 0
653 -17 654 0
653 17 -654 0
-654 -18 -655 0
-654 18 655 0
654 -18 655 0
654 18 -655 0
-655 -20 -656 0
-655 20 656 0
655 -20 656 0
655 20 -656 0
-21 -22 -657 0
-21 22 657 0
21 -22 657 0
21 22 -657 0
-657 -25 -658 0
-657 25 658 0
657 -25 658 0
657 25 -658 0
-658 -26 -659 0
-658 26 659 0
658 -26 659 0
658 26 -659 0
-659 -27 -660 0
-659 27 660 0
659 -27 660 0
659 27 -660 0
-660 -28 -661 0
-660 28 661 0
660 -28 661 0
660 28 -661 0
-661 -30 -662 0
-661 30 662 0
661 -30 662 0
661 30 -662 0
-662 -31 -663 0
-662 31 663 0
662 -31 663 0
662 31 -663 0
-663 -32 -664 0
-663 32 664 0
663 -32 664 0
663 32 -664 0
-664 -35 -665 0
-664 35 665 0
664 -35 665 0
664 35 -665 0
-665 -36 -666 0
-665 36 666 0
665 -36 666 0
665 36 -666 0
-666 -37 -667 0
-666 37 667 0
666 -37 667 0
666 37 -667 0
-667 -38 -668 0
-667 38 668 0
667 -38 668 0
667 38 -668 0
-668 -40 -669 0
-668 40 669 0
668 -40 669 0
668 40 -669 0
656 669 0
-1 -2 -670 0
-1 2 670 0
1 -2 670 0
1 2 -670 0
-670 -3 -671 0
-670 3 671 0
670 -3 671 0
670 3 -671 0
-671 -9 -672 0
-671 9 672 0
671 -9 672 0
671 9 -672 0
-672 -10 -673 0
-672 10 673 0
672 -10 673 0
672 10 -673 0
-673 -11 -674 0
-673 11 674 0
673 -11 674 0
673 11 -674 0
-674 -12 -675 0
-674 12 675 0
674 -12 675 0
674 12 -675 0
-675 -13 -676 0
-675 13 676 0
675 -13 676 0
675 13 -676 0
-676 -19 -677 0
-676 19 677 0
676 -19 677 0
676 19 -677 0
-677 -20 -678 0
-677 20 678 0
677 -20 678 0
677 20 -678 0
-1 -2 -679 0
-1 2 679 0
1 -2 679 0
1 2 -679 0
-679 -3 -680 0
-679 3 680 0
679 -3 680 0
679 3 -680 0
-680 -9 -681 0
-680 9 681 0
680 -9 681 0
680 9 -681 0
-681 -10 -682 0
-681 10 682 0
681 -10 682 0
681 10 -682 0
-682 -21 -683 0
-682 21 683 0
682 -21 683 0
682 21 -683 0
-683 -22 -684 0
-683 22 684 0
683 -22 684 0
683 22 -684 0
-684 -23 -685 0
-684 23 685 0
684 -23 685 0
684 23 -685 0
-685 -29 -686 0
-685 29 686 0
685 -29 686 0
685 29 -686 0
-686 -30 -687 0
-686 30 687 0
686 -30 687 0
686 30 -687 0
-687 -31 -688 0
-687 31 688 0
687 -31 688 0
687 31 -688 0
-688 -32 -689 0
-688 32 689 0
688 -32 689 0
688 32 -689 0
-689 -33 -690 0
-689 33 690 0
689 -33 690 0
689 33 -690 0
-690 -39 -691 0
-690 39 691 0
690 -39 691 0
690 39 -691 0
-691 -40 -692 0
-691 40 692 0
691 -40 692 0
691 40 -692 0
678 692 0
-2 -4 -693 0
-2 4 693 0
2 -4 693 0
2 4 -693 0
-693 -5 -694 0
-693 5 694 0
693 -5 694 0
693 5 -694 0
-694 -9 -695 0
-694 9 695 0
694 -9 695 0
694 9 -695 0
-695 -10 -696 0
-695 10 696 0
695 -10 696 0
695 10 -696 0
-696 -12 -697 0
-696 12 697 0
696 -12 697 0
696 12 -697 0
-697 -14 -698 0
-697 14 698 0
697 -14 698 0
697 14 -698 0
-698 -15 -699 0
-698 15 699 0
698 -15 699 0
698 15 -699 0
-699 -19 -700 0
-699 19 700 0
699 -19 700 0
699 19 -700 0
-700 -20 -701 0
-700 20 701 0
700 -20 701 0
700 20 -701 0
-2 -4 -702 0
-2 4 702 0
2 -4 702 0
2 4 -702 0
-702 -5 -703 0
-702 5 703 0
702 -5 703 0
702 5 -703 0
-703 -9 -704 0
-703 9 704 0
703 -9 704 0
703 9 -704 0
-704 -10 -705 0
-704 10 705 0
704 -10 705 0
704 10 -705 0
-705 -22 -706 0
-705 22 706 0
705 -22 706 0
705 22 -706 0
-706 -24 -707 0
-706 24 707 0
706 -24 707 0
706 24 -707 0
-707 -25 -708 0
-707 25 708 0
707 -25 708 0
707 25 -708 0
-708 -29 -709 0
-708 29 709 0
708 -29 709 0
708 29 -709 0
-709 -30 -710 0
-709 30 710 0
709 -30 710 0
709 30 -710 0
701 710 0
-11 -12 -711 0
-11 12 711 0
11 -12 711 0
11 12 -711 0
-711 -13 -712 0
-711 13 712 0
711 -13 712 0
711 13 -712 0
-712 -14 -713 0
-712 14 713 0
712 -14 713 0
712 14 -713 0
-713 -16 -714 0
-713 16 714 0
713 -16 714 0
713 16 -714 0
-714 -19 -715 0
-714 19 715 0
714 -19 715 0
714 19 -715 0
-715 -20 -716 0
-715 20 716 0
715 -20 716 0
715 20 -716 0
-31 -32 -717 0
-31 32 717 0
31 -32 717 0
31 32 -717 0
-717 -33 -718 0
-717 33 718 0
717 -33 718 0
717 33 -718 0
-718 -34 -719 0
-718 34 719 0
718 -34 719 0
718 34 -719 0
-719 -36 -720 0
-719 36 720 0
719 -36 720 0
719 36 -720 0
-720 -39 -721 0
-720 39 721 0
720 -39 721 0
720 39 -721 0
-721 -40 -722 0
-721 40 722 0
721 -40 722 0
721 40 -722 0
716 722 0
-1 -3 -723 0
-1 3 723 0
1 -3 723 0
1 3 -723 0
-723 -4 -724 0
-723 4 724 0
723 -4 724 0
723 4 -724 0
-724 -5 -725 0
-724 5 725 0
724 -5 725 0
724 5 -725 0
-725 -6 -726 0
-725 6 726 0
725 -6 726 0
725 6 -726 0
-726 -9 -727 0
-726 9 727 0
726 -9 727 0
726 9 -727 0
-727 -10 -728 0
-727 10 728 0
727 -10 728 0
727 10 -728 0
-728 -11 -729 0
-728 11 729 0
728 -11 729 0
728 11 -729 0
-729 -13 -730 0
-729 13 730 0
729 -13 730 0
729 13 -730 0
-730 -14 -731 0
-730 14 731 0
730 -14 731 0
730 14 -731 0
-731 -15 -732 0
-731 15 732 0
731 -15 732 0
731 15 -732 0
-732 -16 -733 0
-732 16 733 0
732 -16 733 0
732 16 -733 0
-733 -19 -734 0
-733 19 734 0
733 -19 734 0
733 19 -734 0
-734 -20 -735 0
-734 20 735 0
734 -20 735 0
734 20 -735 0
-21 -23 -736 0
-21 23 736 0
21 -23 736 0
21 23 -736 0
-736 -24 -737 0
-736 24 737 0
736 -24 737 0
736 24 -737 0
-737 -25 -738 0
-737 25 738 0
737 -25 738 0
737 25 -738 0
-738 -26 -739 0
-738 26 739 0
738 -26 739 0
738 26 -739 0
-739 -29 -740 0
-739 29 740 0
739 -29 740 0
739 29 -740 0
-740 -30 -741 0
-740 30 741 0
740 -30 741 0
740 30 -741 0
735 741 0
-11 -13 -742 0
-11 13 742 0
11 -13 742 0
11 13 -742 0
-742 -15 -743 0
-742 15 743 0
742 -15 743 0
742 15 -743 0
-743 -17 -744 0
-743 17 744 0
743 -17 744 0
743 17 -744 0
-744 -19 -745 0
-744 19 745 0
744 -19 745 0
744 19 -745 0
-745 -20 -746 0
-745 20 746 0
745 -20 746 0
745 20 -746 0
-1 -3 -747 0
-1 3 747 0
1 -3 747 0
1 3 -747 0
-747 -5 -748 0
-747 5 748 0
747 -5 748 0
747 5 -748 0
-748 -7 -749 0
-748 7 749 0
748 -7 749 0
748 7 -749 0
-749 -9 -750 0
-749 9 750 0
749 -9 750 0
749 9 -750 0
-750 -10 -751 0
-750 10 751 0
750 -10 751 0
750 10 -751 0
-751 -21 -752 0
-751 21 752 0
751 -21 752 0
751 21 -752 0
-752 -23 -753 0
-752 23 753 0
752 -23 753 0
752 23 -753 0
-753 -25 -754 0
-753 25 754 0
753 -25 754 0
753 25 -754 0
-754 -27 -755 0
-754 27 755 0
754 -27 755 0
754 27 -755 0
-755 -29 -756 0
-755 29 756 0
755 -29 756 0
755 29 -756 0
-756 -30 -757 0
-756 30 757 0
756 -30 757 0
756 30 -757 0
746 757 0
-1 -2 -758 0
-1 2 758 0
1 -2 758 0
1 2 -758 0
-758 -6 -759 0
-758 6 759 0
758 -6 759 0
758 6 -759 0
-759 -7 -760 0
-759 7 760 0
759 -7 760 0
759 7 -760 0
-760 -9 -761 0
-760 9 761 0
760 -9 761 0
760 9 -761 0
-761 -10 -762 0
-761 10 762 0
761 -10 762 0
761 10 -762 0
-762 -11 -763 0
-762 11 763 0
762 -11 763 0
762 11 -763 0
-763 -12 -764 0
-763 12 764 0
763 -12 764 0
763 12 -764 0
-764 -16 -765 0
-764 16 765 0
764 -16 765 0
764 16 -765 0
-765 -17 -766 0
-765 17 766 0
765 -17 766 0
765 17 -766 0
-766 -19 -767 0
-766 19 767 0
766 -19 767 0
766 19 -767 0
-767 -20 -768 0
-767 20 768 0
767 -20 768 0
767 20 -768 0
-21 -22 -769 0
-21 22 769 0
21 -22 769 0
21 22 -769 0
-769 -26 -770 0
-769 26 770 0
769 -26 770 0
769 26 -770 0
-770 -27 -771 0
-770 27 771 0
770 -27 771 0
770 27 -771 0
-771 -29 -772 0
-771 29 772 0
771 -29 772 0
771 29 -772 0
-772 -30 -773 0
-772 30 773 0
772 -30 773 0
772 30 -773 0
768 773 0
-11 -13 -774 0
-11 13 774 0
11 -13 774 0
11 13 -774 0
-774 -14 -775 0
-774 14 775 0
774 -14 775 0
774 14 -775 0
-775 -18 -776 0
-775 18 776 0
775 -18 776 0
775 18 -776 0
-776 -19 -777 0
-776 19 777 0
776 -19 777 0
776 19 -777 0
-777 -20 -778 0
-777 20 778 0
777 -20 778 0
777 20 -778 0
-1 -3 -779 0
-1 3 779 0
1 -3 779 0
1 3 -779 0
-779 -4 -780 0
-779 4 780 0
779 -4 780 0
779 4 -780 0
-780 -8 -781 0
-780 8 781 0
780 -8 781 0
780 8 -781 0
-781 -9 -782 0
-781 9 782 0
781 -9 782 0
781 9 -782 0
-782 -10 -783 0
-782 10 783 0
782 -10 783 0
782 10 -783 0
-783 -31 -784 0
-783 31 784 0
783 -31 784 0
783 31 -784 0
-784 -33 -785 0
-784 33 785 0
784 -33 785 0
784 33 -785 0
-785 -34 -786 0
-785 34 786 0
785 -34 786 0
785 34 -786 0
-786 -38 -787 0
-786 38 787 0
786 -38 787 0
786 38 -787 0
-787 -39 -788 0
-787 39 788 0
787 -39 788 0
787 39 -788 0
-788 -40 -789 0
-788 40 789 0
788 -40 789 0
788 40 -789 0
778 789 0
-1 -5 -790 0
-1 5 790 0
1 -5 790 0
1 5 -790 0
-790 -8 -791 0
-790 8 791 0
790 -8 791 0
790 8 -791 0
-791 -9 -792 0
-791 9 792 0
791 -9 792 0
791 9 -792 0
-792 -10 -793 0
-792 10 793 0
792 -10 793 0
792 10 -793 0
-793 -11 -794 0
-793 11 794 0
793 -11 794 0
793 11 -794 0
-794 -15 -795 0
-794 15 795 0
794 -15 795 0
794 15 -795 0
-795 -18 -796 0
-795 18 796 0
795 -18 796 0
795 18 -796 0
-796 -19 -797 0
-796 19 797 0
796 -19 797 0
796 19 -797 0
-797 -20 -798 0
-797 20 798 0
797 -20 798 0
797 20 -798 0
-21 -25 -799 0
-21 25 799 0
21 -25 799 0
21 25 -799 0
-799 -28 -800 0
-799 28 800 0
799 -28 800 0
799 28 -800 0
-800 -29 -801 0
-800 29 801 0
800 -29 801 0
800 29 -801 0
-801 -30 -802 0
-801 30 802 0
801 -30 802 0
801 30 -802 0
-802 -31 -803 0
-802 31 803 0
802 -31 803 0
802 31 -803 0
-803 -35 -804 0
-803 35 804 0
803 -35 804 0
803 35 -804 0
-804 -38 -805 0
-804 38 805 0
804 -38 805 0
804 38 -805 0
-805 -39 -806 0
-805 39 806 0
805 -39 806 0
805 39 -806 0
-806 -40 -807 0
-806 40 807 0
806 -40 807 0
806 40 -807 0
798 807 0
-12 -13 -808 0
-12 13 808 0
12 -13 808 0
12 13 -808 0
-808 -16 -809 0
-808 16 809 0
808 -16 809 0
808 16 -809 0
-809 -18 -810 0
-809 18 810 0
809 -18 810 0
809 18 -810 0
-810 -19 -811 0
-810 19 811 0
810 -19 811 0
810 19 -811 0
-811 -20 -812 0
-811 20 812 0
811 -20 812 0
811 20 -812 0
-22 -23 -813 0
-22 23 813 0
22 -23 813 0
22 23 -813 0
-813 -26 -814 0
-813 26 814 0
813 -26 814 0
813 26 -814 0
-814 -28 -815 0
-814 28 815 0
814 -28 815 0
814 28 -815 0
-815 -29 -816 0
-815 29 816 0
815 -29 816 0
815 29 -816 0
-816 -30 -817 0
-816 30 817 0
816 -30 817 0
816 30 -817 0
812 817 0
-11 -12 -818 0
-11 12 818 0
11 -12 818 0
11 12 -818 0
-818 -13 -819 0
-818 13 819 0
818 -13 819 0
818 13 -819 0
-819 -14 -820 0
-819 14 820 0
819 -14 820 0
819 14 -820 0
-820 -15 -821 0
-820 15 821 0
820 -15 821 0
820 15 -821 0
-821 -16 -822 0
-821 16 822 0
821 -16 822 0
821 16 -822 0
-822 -18 -823 0
-822 18 823 0
822 -18 823 0
822 18 -823 0
-823 -19 -824 0
-823 19 824 0
823 -19 824 0
823 19 -824 0
-824 -20 -825 0
-824 20 825 0
824 -20 825 0
824 20 -825 0
-1 -2 -826 0
-1 2 826 0
1 -2 826 0
1 2 -826 0
-826 -3 -827 0
-826 3 827 0
826 -3 827 0
826 3 -827 0
-827 -4 -828 0
-827 4 828 0
827 -4 828 0
827 4 -828 0
-828 -5 -829 0
-828 5 829 0
828 -5 829 0
828 5 -829 0
-829 -6 -830 0
-829 6 830 0
829 -6 830 0
829 6 -830 0
-830 -8 -831 0
-830 8 831 0
830 -8 831 0
830 8 -831 0
-831 -9 -832 0
-831 9 832 0
831 -9 832 0
831 9 -832 0
-832 -10 -833 0
-832 10 833 0
832 -10 833 0
832 10 -833 0
-833 -21 -834 0
-833 21 834 0
833 -21 834 0
833 21 -834 0
-834 -22 -835 0
-834 22 835 0
834 -22 835 0
834 22 -835 0
-835 -23 -836 0
-835 23 836 0
835 -23 836 0
835 23 -836 0
-836 -24 -837 0
-836 24 837 0
836 -24 837 0
836 24 -837 0
-837 -25 -838 0
-837 25 838 0
837 -25 838 0
837 25 -838 0
-838 -26 -839 0
-838 26 839 0
838 -26 839 0
838 26 -839 0
-839 -28 -840 0
-839 28 840 0
839 -28 840 0
839 28 -840 0
-840 -29 -841 0
-840 29 841 0
840 -29 841 0
840 29 -841 0
-841 -30 -842 0
-841 30 842 0
841 -30 842 0
841 30 -842 0
825 842 0
-12 -15 -843 0
-12 15 843 0
12 -15 843 0
12 15 -843 0
-843 -17 -844 0
-843 17 844 0
843 -17 844 0
843 17 -844 0
-844 -22 -845 0
-844 22 845 0
844 -22 845 0
844 22 -845 0
-845 -25 -846 0
-845 25 846 0
845 -25 846 0
845 25 -846 0
-846 -27 -847 0
-846 27 847 0
846 -27 847 0
846 27 -847 0
-2 -5 -848 0
-2 5 848 0
2 -5 848 0
2 5 -848 0
-848 -7 -849 0
-848 7 849 0
848 -7 849 0
848 7 -849 0
-849 -32 -850 0
-849 32 850 0
849 -32 850 0
849 32 -850 0
-850 -35 -851 0
-850 35 851 0
850 -35 851 0
850 35 -851 0
-851 -37 -852 0
-851 37 852 0
851 -37 852 0
851 37 -852 0
847 852 0
-21 -23 -853 0
-21 23 853 0
21 -23 853 0
21 23 -853 0
-853 -25 -854 0
-853 25 854 0
853 -25 854 0
853 25 -854 0
-854 -28 -855 0
-854 28 855 0
854 -28 855 0
854 28 -855 0
-1 -3 -856 0
-1 3 856 0
1 -3 856 0
1 3 -856 0
-856 -5 -857 0
-856 5 857 0
856 -5 857 0
856 5 -857 0
-857 -8 -858 0
-857 8 858 0
857 -8 858 0
857 8 -858 0
-858 -31 -859 0
-858 31 859 0
858 -31 859 0
858 31 -859 0
-859 -33 -860 0
-859 33 860 0
859 -33 860 0
859 33 -860 0
-860 -35 -861 0
-860 35 861 0
860 -35 861 0
860 35 -861 0
-861 -38 -862 0
-861 38 862 0
861 -38 862 0
861 38 -862 0
855 862 0
-21 -22 -863 0
-21 22 863 0
21 -22 863 0
21 22 -863 0
-863 -24 -864 0
-863 24 864 0
863 -24 864 0
863 24 -864 0
-864 -25 -865 0
-864 25 865 0
864 -25 865 0
864 25 -865 0
-865 -28 -866 0
-865 28 866 0
865 -28 866 0
865 28 -866 0
-31 -32 -867 0
-31 32 867 0
31 -32 867 0
31 32 -867 0
-867 -34 -868 0
-867 34 868 0
867 -34 868 0
867 34 -868 0
-868 -35 -869 0
-868 35 869 0
868 -35 869 0
868 35 -869 0
-869 -38 -870 0
-869 38 870 0
869 -38 870 0
869 38 -870 0
866 870 0
-1 -2 -871 0
-1 2 871 0
1 -2 871 0
1 2 -871 0
-871 -6 -872 0
-871 6 872 0
871 -6 872 0
871 6 -872 0
-872 -8 -873 0
-872 8 873 0
872 -8 873 0
872 8 -873 0
-873 -21 -874 0
-873 21 874 0
873 -21 874 0
873 21 -874 0
-874 -22 -875 0
-874 22 875 0
874 -22 875 0
874 22 -875 0
-875 -26 -876 0
-875 26 876 0
875 -26 876 0
875 26 -876 0
-876 -28 -877 0
-876 28 877 0
876 -28 877 0
876 28 -877 0
-1 -2 -878 0
-1 2 878 0
1 -2 878 0
1 2 -878 0
-878 -6 -879 0
-878 6 879 0
878 -6 879 0
878 6 -879 0
-879 -8 -880 0
-879 8 880 0
879 -8 880 0
879 8 -880 0
-880 -11 -881 0
-880 11 881 0
880 -11 881 0
880 11 -881 0
-881 -12 -882 0
-881 12 882 0
881 -12 882 0
881 12 -882 0
-882 -16 -883 0
-882 16 883 0
882 -16 883 0
882 16 -883 0
-883 -18 -884 0
-883 18 884 0
883 -18 884 0
883 18 -884 0
-884 -31 -885 0
-884 31 885 0
884 -31 885 0
884 31 -885 0
-885 -32 -886 0
-885 32 886 0
885 -32 886 0
885 32 -886 0
-886 -36 -887 0
-886 36 887 0
886 -36 887 0
886 36 -887 0
-887 -38 -888 0
-887 38 888 0
887 -38 888 0
887 38 -888 0
877 888 0
-1 -3 -889 0
-1 3 889 0
1 -3 889 0
1 3 -889 0
-889 -6 -890 0
-889 6 890 0
889 -6 890 0
889 6 -890 0
-890 -8 -891 0
-890 8 891 0
890 -8 891 0
890 8 -891 0
-891 -21 -892 0
-891 21 892 0
891 -21 892 0
891 21 -892 0
-892 -23 -893 0
-892 23 893 0
892 -23 893 0
892 23 -893 0
-893 -26 -894 0
-893 26 894 0
893 -26 894 0
893 26 -894 0
-894 -28 -895 0
-894 28 895 0
894 -28 895 0
894 28 -895 0
-11 -13 -896 0
-11 13 896 0
11 -13 896 0
11 13 -896 0
-896 -16 -897 0
-896 16 897 0
896 -16 897 0
896 16 -897 0
-897 -18 -898 0
-897 18 898 0
897 -18 898 0
897 18 -898 0
-898 -31 -899 0
-898 31 899 0
898 -31 899 0
898 31 -899 0
-899 -33 -900 0
-899 33 900 0
899 -33 900 0
899 33 -900 0
-900 -36 -901 0
-900 36 901 0
900 -36 901 0
900 36 -901 0
-901 -38 -902 0
-901 38 902 0
901 -38 902 0
901 38 -902 0
895 902 0
-12 -13 -903 0
-12 13 903 0
12 -13 903 0
12 13 -903 0
-903 -14 -904 0
-903 14 904 0
903 -14 904 0
903 14 -904 0
-904 -16 -905 0
-904 16 905 0
904 -16 905 0
904 16 -905 0
-905 -17 -906 0
-905 17 906 0
905 -17 906 0
905 17 -906 0
-906 -18 -907 0
-906 18 907 0
906 -18 907 0
906 18 -907 0
-907 -22 -908 0
-907 22 908 0
907 -22 908 0
907 22 -908 0
-908 -23 -909 0
-908 23 909 0
908 -23 909 0
908 23 -909 0
-909 -24 -910 0
-909 24 910 0
909 -24 910 0
909 24 -910 0
-910 -26 -911 0
-910 26 911 0
910 -26 911 0
910 26 -911 0
-911 -27 -912 0
-911 27 912 0
911 -27 912 0
911 27 -912 0
-912 -28 -913 0
-912 28 913 0
912 -28 913 0
912 28 -913 0
-32 -33 -914 0
-32 33 914 0
32 -33 914 0
32 33 -914 0
-914 -34 -915 0
-914 34 915 0
914 -34 915 0
914 34 -915 0
-915 -36 -916 0
-915 36 916 0
915 -36 916 0
915 36 -916 0
-916 -37 -917 0
-916 37 917 0
916 -37 917 0
916 37 -917 0
-917 -38 -918 0
-917 38 918 0
917 -38 918 0
917 38 -918 0
913 918 0
-11 -12 -919 0
-11 12 919 0
11 -12 919 0
11 12 -919 0
-919 -13 -920 0
-919 13 920 0
919 -13 920 0
919 13 -920 0
-920 -14 -921 0
-920 14 921 0
920 -14 921 0
920 14 -921 0
-921 -19 -922 0
-921 19 922 0
921 -19 922 0
921 19 -922 0
-922 -21 -923 0
-922 21 923 0
922 -21 923 0
922 21 -923 0
-923 -22 -924 0
-923 22 924 0
923 -22 924 0
923 22 -924 0
-924 -23 -925 0
-924 23 925 0
924 -23 925 0
924 23 -925 0
-925 -24 -926 0
-925 24 926 0
925 -24 926 0
925 24 -926 0
-926 -29 -927 0
-926 29 927 0
926 -29 927 0
926 29 -927 0
-1 -2 -928 0
-1 2 928 0
1 -2 928 0
1 2 -928 0
-928 -3 -929 0
-928 3 929 0
928 -3 929 0
928 3 -929 0
-929 -4 -930 0
-929 4 930 0
929 -4 930 0
929 4 -930 0
-930 -9 -931 0
-930 9 931 0
930 -9 931 0
930 9 -931 0
-931 -11 -932 0
-931 11 932 0
931 -11 932 0
931 11 -932 0
-932 -12 -933 0
-932 12 933 0
932 -12 933 0
932 12 -933 0
-933 -13 -934 0
-933 13 934 0
933 -13 934 0
933 13 -934 0
-934 -14 -935 0
-934 14 935 0
934 -14 935 0
934 14 -935 0
-935 -19 -936 0
-935 19 936 0
935 -19 936 0
935 19 -936 0
-936 -31 -937 0
-936 31 937 0
936 -31 937 0
936 31 -937 0
-937 -32 -938 0
-937 32 938 0
937 -32 938 0
937 32 -938 0
-938 -33 -939 0
-938 33 939 0
938 -33 939 0
938 33 -939 0
-939 -34 -940 0
-939 34 940 0
939 -34 940 0
939 34 -940 0
-940 -39 -941 0
-940 39 941 0
940 -39 941 0
940 39 -941 0
927 941 0
-1 -2 -942 0
-1 2 942 0
1 -2 942 0
1 2 -942 0
-942 -5 -943 0
-942 5 943 0
942 -5 943 0
942 5 -943 0
-943 -9 -944 0
-943 9 944 0
943 -9 944 0
943 9 -944 0
-944 -11 -945 0
-944 11 945 0
944 -11 945 0
944 11 -945 0
-945 -12 -946 0
-945 12 946 0
945 -12 946 0
945 12 -946 0
-946 -15 -947 0
-946 15 947 0
946 -15 947 0
946 15 -947 0
-947 -19 -948 0
-947 19 948 0
947 -19 948 0
947 19 -948 0
-948 -21 -949 0
-948 21 949 0
948 -21 949 0
948 21 -949 0
-949 -22 -950 0
-949 22 950 0
949 -22 950 0
949 22 -950 0
-950 -25 -951 0
-950 25 951 0
950 -25 951 0
950 25 -951 0
-951 -29 -952 0
-951 29 952 0
951 -29 952 0
951 29 -952 0
-31 -32 -953 0
-31 32 953 0
31 -32 953 0
31 32 -953 0
-953 -35 -954 0
-953 35 954 0
953 -35 954 0
953 35 -954 0
-954 -39 -955 0
-954 39 955 0
954 -39 955 0
954 39 -955 0
952 955 0
-1 -4 -956 0
-1 4 956 0
1 -4 956 0
1 4 -956 0
-956 -5 -957 0
-956 5 957 0
956 -5 957 0
956 5 -957 0
-957 -9 -958 0
-957 9 958 0
957 -9 958 0
957 9 -958 0
-958 -21 -959 0
-958 21 959 0
958 -21 959 0
958 21 -959 0
-959 -24 -960 0
-959 24 960 0
959 -24 960 0
959 24 -960 0
-960 -25 -961 0
-960 25 961 0
960 -25 961 0
960 25 -961 0
-961 -29 -962 0
-961 29 962 0
961 -29 962 0
961 29 -962 0
-1 -4 -963 0
-1 4 963 0
1 -4 963 0
1 4 -963 0
-963 -5 -964 0
-963 5 964 0
963 -5 964 0
963 5 -964 0
-964 -9 -965 0
-964 9 965 0
964 -9 965 0
964 9 -965 0
-965 -31 -966 0
-965 31 966 0
965 -31 966 0
965 31 -966 0
-966 -34 -967 0
-966 34 967 0
966 -34 967 0
966 34 -967 0
-967 -35 -968 0
-967 35 968 0
967 -35 968 0
967 35 -968 0
-968 -39 -969 0
-968 39 969 0
968 -39 969 0
968 39 -969 0
962 969 0
-22 -24 -970 0
-22 24 970 0
22 -24 970 0
22 24 -970 0
-970 -26 -971 0
-970 26 971 0
970 -26 971 0
970 26 -971 0
-971 -29 -972 0
-971 29 972 0
971 -29 972 0
971 29 -972 0
-2 -4 -973 0
-2 4 973 0
2 -4 973 0
2 4 -973 0
-973 -6 -974 0
-973 6 974 0
973 -6 974 0
973 6 -974 0
-974 -9 -975 0
-974 9 975 0
974 -9 975 0
974 9 -975 0
-975 -32 -976 0
-975 32 976 0
975 -32 976 0
975 32 -976 0
-976 -34 -977 0
-976 34 977 0
976 -34 977 0
976 34 -977 0
-977 -36 -978 0
-977 36 978 0
977 -36 978 0
977 36 -978 0
-978 -39 -979 0
-978 39 979 0
978 -39 979 0
978 39 -979 0
972 979 0
-2 -3 -980 0
-2 3 980 0
2 -3 980 0
2 3 -980 0
-980 -4 -981 0
-980 4 981 0
980 -4 981 0
980 4 -981 0
-981 -6 -982 0
-981 6 982 0
981 -6 982 0
981 6 -982 0
-982 -9 -983 0
-982 9 983 0
982 -9 983 0
982 9 -983 0
-983 -22 -984 0
-983 22 984 0
983 -22 984 0
983 22 -984 0
-984 -23 -985 0
-984 23 985 0
984 -23 985 0
984 23 -985 0
-985 -24 -986 0
-985 24 986 0
985 -24 986 0
985 24 -986 0
-986 -26 -987 0
-986 26 987 0
986 -26 987 0
986 26 -987 0
-987 -29 -988 0
-987 29 988 0
987 -29 988 0
987 29 -988 0
-12 -13 -989 0
-12 13 989 0
12 -13 989 0
12 13 -989 0
-989 -14 -990 0
-989 14 990 0
989 -14 990 0
989 14 -990 0
-990 -16 -991 0
-990 16 991 0
990 -16 991 0
990 16 -991 0
-991 -19 -992 0
-991 19 992 0
991 -19 992 0
991 19 -992 0
-992 -32 -993 0
-992 32 993 0
992 -32 993 0
992 32 -993 0
-993 -33 -994 0
-993 33 994 0
993 -33 994 0
993 33 -994 0
-994 -34 -995 0
-994 34 995 0
994 -34 995 0
994 34 -995 0
-995 -36 -996 0
-995 36 996 0
995 -36 996 0
995 36 -996 0
-996 -39 -997 0
-996 39 997 0
996 -39 997 0
996 39 -997 0
988 997 0
-21 -27 -998 0
-21 27 998 0
21 -27 998 0
21 27 -998 0
-998 -29 -999 0
-998 29 999 0
998 -29 999 0
998 29 -999 0
-1 -7 -1000 0
-1 7 1000 0
1 -7 1000 0
1 7 -1000 0
-1000 -9 -1001 0
-1000 9 1001 0
1000 -9 1001 0
1000 9 -1001 0
-1001 -11 -1002 0
-1001 11 1002 0
1001 -11 1002 0
1001 11 -1002 0
-1002 -17 -1003 0
-1002 17 1003 0
1002 -17 1003 0
1002 17 -1003 0
-1003 -19 -1004 0
-1003 19 1004 0
1003 -19 1004 0
1003 19 -1004 0
-1004 -31 -1005 0
-1004 31 1005 0
1004 -31 1005 0
1004 31 -1005 0
-1005 -37 -1006 0
-1005 37 1006 0
1005 -37 1006 0
1005 37 -1006 0
-1006 -39 -1007 0
-1006 39 1007 0
1006 -39 1007 0
1006 39 -1007 0
999 1007 0
-22 -24 -1008 0
-22 24 1008 0
22 -24 1008 0
22 24 -1008 0
-1008 -25 -1009 0
-1008 25 1009 0
1008 -25 1009 0
1008 25 -1009 0
-1009 -26 -1010 0
-1009 26 1010 0
1009 -26 1010 0
1009 26 -1010 0
-1010 -27 -1011 0
-1010 27 1011 0
1010 -27 1011 0
1010 27 -1011 0
-1011 -29 -1012 0
-1011 29 1012 0
1011 -29 1012 0
1011 29 -1012 0
-12 -14 -1013 0
-12 14 1013 0
12 -14 1013 0
12 14 -1013 0
-1013 -15 -1014 0
-1013 15 1014 0
1013 -15 1014 0
1013 15 -1014 0
-1014 -16 -1015 0
-1014 16 1015 0
1014 -16 1015 0
1014 16 -1015 0
-1015 -17 -1016 0
-1015 17 1016 0
1015 -17 1016 0
1015 17 -1016 0
-1016 -19 -1017 0
-1016 19 1017 0
1016 -19 1017 0
1016 19 -1017 0
-1017 -32 -1018 0
-1017 32 1018 0
1017 -32 1018 0
1017 32 -1018 0
-1018 -34 -1019 0
-1018 34 1019 0
1018 -34 1019 0
1018 34 -1019 0
-1019 -35 -1020 0
-1019 35 1020 0
1019 -35 1020 0
1019 35 -1020 0
-1020 -36 -1021 0
-1020 36 1021 0
1020 -36 1021 0
1020 36 -1021 0
-1021 -37 -1022 0
-1021 37 1022 0
1021 -37 1022 0
1021 37 -1022 0
-1022 -39 -1023 0
-1022 39 1023 0
1022 -39 1023 0
1022 39 -1023 0
1012 1023 0
-1 -2 -1024 0
-1 2 1024 0
1 -2 1024 0
1 2 -1024 0
-1024 -4 -1025 0
-1024 4 1025 0
1024 -4 1025 0
1024 4 -1025 0
-1025 -8 -1026 0
-1025 8 1026 0
1025 -8 1026 0
1025 8 -1026 0
-1026 -9 -1027 0
-1026 9 1027 0
1026 -9 1027 0
1026 9 -1027 0
-1027 -21 -1028 0
-1027 21 1028 0
1027 -21 1028 0
1027 21 -1028 0
-1028 -22 -1029 0
-1028 22 1029 0
1028 -22 1029 0
1028 22 -1029 0
-1029 -24 -1030 0
-1029 24 1030 0
1029 -24 1030 0
1029 24 -1030 0
-1030 -28 -1031 0
-1030 28 1031 0
1030 -28 1031 0
1030 28 -1031 0
-1031 -29 -1032 0
-1031 29 1032 0
1031 -29 1032 0
1031 29 -1032 0
-11 -12 -1033 0
-11 12 1033 0
11 -12 1033 0
11 12 -1033 0
-1033 -14 -1034 0
-1033 14 1034 0
1033 -14 1034 0
1033 14 -1034 0
-1034 -18 -1035 0
-1034 18 1035 0
1034 -18 1035 0
1034 18 -1035 0
-1035 -19 -1036 0
-1035 19 1036 0
1035 -19 1036 0
1035 19 -1036 0
-1036 -31 -1037 0
-1036 31 1037 0
1036 -31 1037 0
1036 31 -1037 0
-1037 -32 -1038 0
-1037 32 1038 0
1037 -32 1038 0
1037 32 -1038 0
-1038 -34 -1039 0
-1038 34 1039 0
1038 -34 1039 0
1038 34 -1039 0
-1039 -38 -1040 0
-1039 38 1040 0
1039 -38 1040 0
1039 38 -1040 0
-1040 -39 -1041 0
-1040 39 1041 0
1040 -39 1041 0
1040 39 -1041 0
1032 1041 0
-1 -5 -1042 0
-1 5 1042 0
1 -5 1042 0
1 5 -1042 0
-1042 -8 -1043 0
-1042 8 1043 0
1042 -8 1043 0
1042 8 -1043 0
-1043 -9 -1044 0
-1043 9 1044 0
1043 -9 1044 0
1043 9 -1044 0
-1044 -11 -1045 0
-1044 11 1045 0
1044 -11 1045 0
1044 11 -1045 0
-1045 -15 -1046 0
-1045 15 1046 0
1045 -15 1046 0
1045 15 -1046 0
-1046 -18 -1047 0
-1046 18 1047 0
1046 -18 1047 0
1046 18 -1047 0
-1047 -19 -1048 0
-1047 19 1048 0
1047 -19 1048 0
1047 19 -1048 0
-1048 -21 -1049 0
-1048 21 1049 0
1048 -21 1049 0
1048 21 -1049 0
-1049 -25 -1050 0
-1049 25 1050 0
1049 -25 1050 0
1049 25 -1050 0
-1050 -28 -1051 0
-1050 28 1051 0
1050 -28 1051 0
1050 28 -1051 0
-1051 -29 -1052 0
-1051 29 1052 0
1051 -29 1052 0
1051 29 -1052 0
-11 -15 -1053 0
-11 15 1053 0
11 -15 1053 0
11 15 -1053 0
-1053 -18 -1054 0
-1053 18 1054 0
1053 -18 1054 0
1053 18 -1054 0
-1054 -19 -1055 0
-1054 19 1055 0
1054 -19 1055 0
1054 19 -1055 0
-1055 -31 -1056 0
-1055 31 1056 0
1055 -31 1056 0
1055 31 -1056 0
-1056 -35 -1057 0
-1056 35 1057 0
1056 -35 1057 0
1056 35 -1057 0
-1057 -38 -1058 0
-1057 38 1058 0
1057 -38 1058 0
1057 38 -1058 0
-1058 -39 -1059 0
-1058 39 1059 0
1058 -39 1059 0
1058 39 -1059 0
1052 1059 0
-21 -22 -1060 0
-21 22 1060 0
21 -22 1060 0
21 22 -1060 0
-1060 -23 -1061 0
-1060 23 1061 0
1060 -23 1061 0
1060 23 -1061 0
-1061 -24 -1062 0
-1061 24 1062 0
1061 -24 1062 0
1061 24 -1062 0
-1062 -25 -1063 0
-1062 25 1063 0
1062 -25 1063 0
1062 25 -1063 0
-1063 -26 -1064 0
-1063 26 1064 0
1063 -26 1064 0
1063 26 -1064 0
-1064 -28 -1065 0
-1064 28 1065 0
1064 -28 1065 0
1064 28 -1065 0
-1065 -29 -1066 0
-1065 29 1066 0
1065 -29 1066 0
1065 29 -1066 0
-1 -2 -1067 0
-1 2 1067 0
1 -2 1067 0
1 2 -1067 0
-1067 -3 -1068 0
-1067 3 1068 0
1067 -3 1068 0
1067 3 -1068 0
-1068 -4 -1069 0
-1068 4 1069 0
1068 -4 1069 0
1068 4 -1069 0
-1069 -5 -1070 0
-1069 5 1070 0
1069 -5 1070 0
1069 5 -1070 0
-1070 -6 -1071 0
-1070 6 1071 0
1070 -6 1071 0
1070 6 -1071 0
-1071 -8 -1072 0
-1071 8 1072 0
1071 -8 1072 0
1071 8 -1072 0
-1072 -9 -1073 0
-1072 9 1073 0
1072 -9 1073 0
1072 9 -1073 0
-1073 -31 -1074 0
-1073 31 1074 0
1073 -31 1074 0
1073 31 -1074 0
-1074 -32 -1075 0
-1074 32 1075 0
1074 -32 1075 0
1074 32 -1075 0
-1075 -33 -1076 0
-1075 33 1076 0
1075 -33 1076 0
1075 33 -1076 0
-1076 -34 -1077 0
-1076 34 1077 0
1076 -34 1077 0
1076 34 -1077 0
-1077 -35 -1078 0
-1077 35 1078 0
1077 -35 1078 0
1077 35 -1078 0
-1078 -36 -1079 0
-1078 36 1079 0
1078 -36 1079 0
1078 36 -1079 0
-1079 -38 -1080 0
-1079 38 1080 0
1079 -38 1080 0
1079 38 -1080 0
-1080 -39 -1081 0
-1080 39 1081 0
1080 -39 1081 0
1080 39 -1081 0
1066 1081 0
-2 -7 -1082 0
-2 7 1082 0
2 -7 1082 0
2 7 -1082 0
-1082 -8 -1083 0
-1082 8 1083 0
1082 -8 1083 0
1082 8 -1083 0
-1083 -9 -1084 0
-1083 9 1084 0
1083 -9 1084 0
1083 9 -1084 0
-1084 -22 -1085 0
-1084 22 1085 0
1084 -22 1085 0
1084 22 -1085 0
-1085 -27 -1086 0
-1085 27 1086 0
1085 -27 1086 0
1085 27 -1086 0
-1086 -28 -1087 0
-1086 28 1087 0
1086 -28 1087 0
1086 28 -1087 0
-1087 -29 -1088 0
-1087 29 1088 0
1087 -29 1088 0
1087 29 -1088 0
-32 -37 -1089 0
-32 37 1089 0
32 -37 1089 0
32 37 -1089 0
-1089 -38 -1090 0
-1089 38 1090 0
1089 -38 1090 0
1089 38 -1090 0
-1090 -39 -1091 0
-1090 39 1091 0
1090 -39 1091 0
1090 39 -1091 0
1088 1091 0
-1 -2 -1092 0
-1 2 1092 0
1 -2 1092 0
1 2 -1092 0
-1092 -3 -1093 0
-1092 3 1093 0
1092 -3 1093 0
1092 3 -1093 0
-1093 -4 -1094 0
-1093 4 1094 0
1093 -4 1094 0
1093 4 -1094 0
-1094 -7 -1095 0
-1094 7 1095 0
1094 -7 1095 0
1094 7 -1095 0
-1095 -8 -1096 0
-1095 8 1096 0
1095 -8 1096 0
1095 8 -1096 0
-1096 -9 -1097 0
-1096 9 1097 0
1096 -9 1097 0
1096 9 -1097 0
-1097 -11 -1098 0
-1097 11 1098 0
1097 -11 1098 0
1097 11 -1098 0
-1098 -12 -1099 0
-1098 12 1099 0
1098 -12 1099 0
1098 12 -1099 0
-1099 -13 -1100 0
-1099 13 1100 0
1099 -13 1100 0
1099 13 -1100 0
-1100 -14 -1101 0
-1100 14 1101 0
1100 -14 1101 0
1100 14 -1101 0
-1101 -17 -1102 0
-1101 17 1102 0
1101 -17 1102 0
1101 17 -1102 0
-1102 -18 -1103 0
-1102 18 1103 0
1102 -18 1103 0
1102 18 -1103 0
-1103 -19 -1104 0
-1103 19 1104 0
1103 -19 1104 0
1103 19 -1104 0
-1104 -21 -1105 0
-1104 21 1105 0
1104 -21 1105 0
1104 21 -1105 0
-1105 -22 -1106 0
-1105 22 1106 0
1105 -22 1106 0
1105 22 -1106 0
-1106 -23 -1107 0
-1106 23 1107 0
1106 -23 1107 0
1106 23 -1107 0
-1107 -24 -1108 0
-1107 24 1108 0
1107 -24 1108 0
1107 24 -1108 0
-1108 -27 -1109 0
-1108 27 1109 0
1108 -27 1109 0
1108 27 -1109 0
-1109 -28 -1110 0
-1109 28 1110 0
1109 -28 1110 0
1109 28 -1110 0
-1110 -29 -1111 0
-1110 29 1111 0
1110 -29 1111 0
1110 29 -1111 0
-1 -2 -1112 0
-1 2 1112 0
1 -2 1112 0
1 2 -1112 0
-1112 -3 -1113 0
-1112 3 1113 0
1112 -3 1113 0
1112 3 -1113 0
-1113 -4 -1114 0
-1113 4 1114 0
1113 -4 1114 0
1113 4 -1114 0
-1114 -7 -1115 0
-1114 7 1115 0
1114 -7 1115 0
1114 7 -1115 0
-1115 -8 -1116 0
-1115 8 1116 0
1115 -8 1116 0
1115 8 -1116 0
-1116 -9 -1117 0
-1116 9 1117 0
1116 -9 1117 0
1116 9 -1117 0
-1117 -31 -1118 0
-1117 31 1118 0
1117 -31 1118 0
1117 31 -1118 0
-1118 -32 -1119 0
-1118 32 1119 0
1118 -32 1119 0
1118 32 -1119 0
-1119 -33 -1120 0
-1119 33 1120 0
1119 -33 1120 0
1119 33 -1120 0
-1120 -34 -1121 0
-1120 34 1121 0
1120 -34 1121 0
1120 34 -1121 0
-1121 -37 -1122 0
-1121 37 1122 0
1121 -37 1122 0
1121 37 -1122 0
-1122 -38 -1123 0
-1122 38 1123 0
1122 -38 1123 0
1122 38 -1123 0
-1123 -39 -1124 0
-1123 39 1124 0
1123 -39 1124 0
1123 39 -1124 0
1111 1124 0
-11 -12 -1125 0
-11 12 1125 0
11 -12 1125 0
11 12 -1125 0
-1125 -13 -1126 0
-1125 13 1126 0
1125 -13 1126 0
1125 13 -1126 0
-1126 -14 -1127 0
-1126 14 1127 0
1126 -14 1127 0
1126 14 -1127 0
-1127 -15 -1128 0
-1127 15 1128 0
1127 -15 1128 0
1127 15 -1128 0
-1128 -17 -1129 0
-1128 17 1129 0
1128 -17 1129 0
1128 17 -1129 0
-1129 -18 -1130 0
-1129 18 1130 0
1129 -18 1130 0
1129 18 -1130 0
-1130 -19 -1131 0
-1130 19 1131 0
1130 -19 1131 0
1130 19 -1131 0
-1131 -21 -1132 0
-1131 21 1132 0
1131 -21 1132 0
1131 21 -1132 0
-1132 -22 -1133 0
-1132 22 1133 0
1132 -22 1133 0
1132 22 -1133 0
-1133 -23 -1134 0
-1133 23 1134 0
1133 -23 1134 0
1133 23 -1134 0
-1134 -24 -1135 0
-1134 24 1135 0
1134 -24 1135 0
1134 24 -1135 0
-1135 -25 -1136 0
-1135 25 1136 0
1135 -25 1136 0
1135 25 -1136 0
-1136 -27 -1137 0
-1136 27 1137 0
1136 -27 1137 0
1136 27 -1137 0
-1137 -28 -1138 0
-1137 28 1138 0
1137 -28 1138 0
1137 28 -1138 0
-1138 -29 -1139 0
-1138 29 1139 0
1138 -29 1139 0
1138 29 -1139 0
-11 -12 -1140 0
-11 12 1140 0
11 -12 1140 0
11 12 -1140 0
-1140 -13 -1141 0
-1140 13 1141 0
1140 -13 1141 0
1140 13 -1141 0
-1141 -14 -1142 0
-1141 14 1142 0
1141 -14 1142 0
1141 14 -1142 0
-1142 -15 -1143 0
-1142 15 1143 0
1142 -15 1143 0
1142 15 -1143 0
-1143 -17 -1144 0
-1143 17 1144 0
1143 -17 1144 0
1143 17 -1144 0
-1144 -18 -1145 0
-1144 18 1145 0
1144 -18 1145 0
1144 18 -1145 0
-1145 -19 -1146 0
-1145 19 1146 0
1145 -19 1146 0
1145 19 -1146 0
-1146 -31 -1147 0
-1146 31 1147 0
1146 -31 1147 0
1146 31 -1147 0
-1147 -32 -1148 0
-1147 32 1148 0
1147 -32 1148 0
1147 32 -1148 0
-1148 -33 -1149 0
-1148 33 1149 0
1148 -33 1149 0
1148 33 -1149 0
-1149 -34 -1150 0
-1149 34 1150 0
1149 -34 1150 0
1149 34 -1150 0
-1150 -35 -1151 0
-1150 35 1151 0
1150 -35 1151 0
1150 35 -1151 0
-1151 -37 -1152 0
-1151 37 1152 0
1151 -37 1152 0
1151 37 -1152 0
-1152 -38 -1153 0
-1152 38 1153 0
1152 -38 1153 0
1152 38 -1153 0
-1153 -39 -1154 0
-1153 39 1154 0
1153 -39 1154 0
1153 39 -1154 0
1139 1154 0
-1 -4 -1155 0
-1 4 1155 0
1 -4 1155 0
1 4 -1155 0
-1155 -5 -1156 0
-1155 5 1156 0
1155 -5 1156 0
1155 5 -1156 0
-1156 -6 -1157 0
-1156 6 1157 0
1156 -6 1157 0
1156 6 -1157 0
-1157 -7 -1158 0
-1157 7 1158 0
1157 -7 1158 0
1157 7 -1158 0
-1158 -8 -1159 0
-1158 8 1159 0
1158 -8 1159 0
1158 8 -1159 0
-1159 -9 -1160 0
-1159 9 1160 0
1159 -9 1160 0
1159 9 -1160 0
-1160 -11 -1161 0
-1160 11 1161 0
1160 -11 1161 0
1160 11 -1161 0
-1161 -14 -1162 0
-1161 14 1162 0
1161 -14 1162 0
1161 14 -1162 0
-1162 -15 -1163 0
-1162 15 1163 0
1162 -15 1163 0
1162 15 -1163 0
-1163 -16 -1164 0
-1163 16 1164 0
1163 -16 1164 0
1163 16 -1164 0
-1164 -17 -1165 0
-1164 17 1165 0
1164 -17 1165 0
1164 17 -1165 0
-1165 -18 -1166 0
-1165 18 1166 0
1165 -18 1166 0
1165 18 -1166 0
-1166 -19 -1167 0
-1166 19 1167 0
1166 -19 1167 0
1166 19 -1167 0
-1167 -21 -1168 0
-1167 21 1168 0
1167 -21 1168 0
1167 21 -1168 0
-1168 -24 -1169 0
-1168 24 1169 0
1168 -24 1169 0
1168 24 -1169 0
-1169 -25 -1170 0
-1169 25 1170 0
1169 -25 1170 0
1169 25 -1170 0
-1170 -26 -1171 0
-1170 26 1171 0
1170 -26 1171 0
1170 26 -1171 0
-1171 -27 -1172 0
-1171 27 1172 0
1171 -27 1172 0
1171 27 -1172 0
-1172 -28 -1173 0
-1172 28 1173 0
1172 -28 1173 0
1172 28 -1173 0
-1173 -29 -1174 0
-1173 29 1174 0
1173 -29 1174 0
1173 29 -1174 0
-1 -4 -1175 0
-1 4 1175 0
1 -4 1175 0
1 4 -1175 0
-1175 -5 -1176 0
-1175 5 1176 0
1175 -5 1176 0
1175 5 -1176 0
-1176 -6 -1177 0
-1176 6 1177 0
1176 -6 1177 0
1176 6 -1177 0
-1177 -7 -1178 0
-1177 7 1178 0
1177 -7 1178 0
1177 7 -1178 0
-1178 -8 -1179 0
-1178 8 1179 0
1178 -8 1179 0
1178 8 -1179 0
-1179 -9 -1180 0
-1179 9 1180 0
1179 -9 1180 0
1179 9 -1180 0
-1180 -11 -1181 0
-1180 11 1181 0
1180 -11 1181 0
1180 11 -1181 0
-1181 -14 -1182 0
-1181 14 1182 0
1181 -14 1182 0
1181 14 -1182 0
-1182 -15 -1183 0
-1182 15 1183 0
1182 -15 1183 0
1182 15 -1183 0
-1183 -16 -1184 0
-1183 16 1184 0
1183 -16 1184 0
1183 16 -1184 0
-1184 -17 -1185 0
-1184 17 1185 0
1184 -17 1185 0
1184 17 -1185 0
-1185 -18 -1186 0
-1185 18 1186 0
1185 -18 1186 0
1185 18 -1186 0
-1186 -19 -1187 0
-1186 19 1187 0
1186 -19 1187 0
1186 19 -1187 0
-1187 -31 -1188 0
-1187 31 1188 0
1187 -31 1188 0
1187 31 -1188 0
-1188 -34 -1189 0
-1188 34 1189 0
1188 -34 1189 0
1188 34 -1189 0
-1189 -35 -1190 0
-1189 35 1190 0
1189 -35 1190 0
1189 35 -1190 0
-1190 -36 -1191 0
-1190 36 1191 0
1190 -36 1191 0
1190 36 -1191 0
-1191 -37 -1192 0
-1191 37 1192 0
1191 -37 1192 0
1191 37 -1192 0
-1192 -38 -1193 0
-1192 38 1193 0
1192 -38 1193 0
1192 38 -1193 0
-1193 -39 -1194 0
-1193 39 1194 0
1193 -39 1194 0
1193 39 -1194 0
1174 1194 0
-1 -2 -1195 0
-1 2 1195 0
1 -2 1195 0
1 2 -1195 0
-1195 -10 -1196 0
-1195 10 1196 0
1195 -10 1196 0
1195 10 -1196 0
-1196 -21 -1197 0
-1196 21 1197 0
1196 -21 1197 0
1196 21 -1197 0
-1197 -22 -1198 0
-1197 22 1198 0
1197 -22 1198 0
1197 22 -1198 0
-1198 -30 -1199 0
-1198 30 1199 0
1198 -30 1199 0
1198 30 -1199 0
-31 -32 -1200 0
-31 32 1200 0
31 -32 1200 0
31 32 -1200 0
-1200 -40 -1201 0
-1200 40 1201 0
1200 -40 1201 0
1200 40 -1201 0
1199 1201 0
-2 -5 -1202 0
-2 5 1202 0
2 -5 1202 0
2 5 -1202 0
-1202 -6 -1203 0
-1202 6 1203 0
1202 -6 1203 0
1202 6 -1203 0
-1203 -10 -1204 0
-1203 10 1204 0
1203 -10 1204 0
1203 10 -1204 0
-1204 -22 -1205 0
-1204 22 1205 0
1204 -22 1205 0
1204 22 -1205 0
-1205 -25 -1206 0
-1205 25 1206 0
1205 -25 1206 0
1205 25 -1206 0
-1206 -26 -1207 0
-1206 26 1207 0
1206 -26 1207 0
1206 26 -1207 0
-1207 -30 -1208 0
-1207 30 1208 0
1207 -30 1208 0
1207 30 -1208 0
-2 -5 -1209 0
-2 5 1209 0
2 -5 1209 0
2 5 -1209 0
-1209 -6 -1210 0
-1209 6 1210 0
1209 -6 1210 0
1209 6 -1210 0
-1210 -10 -1211 0
-1210 10 1211 0
1210 -10 1211 0
1210 10 -1211 0
-1211 -32 -1212 0
-1211 32 1212 0
1211 -32 1212 0
1211 32 -1212 0
-1212 -35 -1213 0
-1212 35 1213 0
1212 -35 1213 0
1212 35 -1213 0
-1213 -36 -1214 0
-1213 36 1214 0
1213 -36 1214 0
1213 36 -1214 0
-1214 -40 -1215 0
-1214 40 1215 0
1214 -40 1215 0
1214 40 -1215 0
1208 1215 0
-21 -24 -1216 0
-21 24 1216 0
21 -24 1216 0
21 24 -1216 0
-1216 -27 -1217 0
-1216 27 1217 0
1216 -27 1217 0
1216 27 -1217 0
-1217 -30 -1218 0
-1217 30 1218 0
1217 -30 1218 0
1217 30 -1218 0
-31 -34 -1219 0
-31 34 1219 0
31 -34 1219 0
31 34 -1219 0
-1219 -37 -1220 0
-1219 37 1220 0
1219 -37 1220 0
1219 37 -1220 0
-1220 -40 -1221 0
-1220 40 1221 0
1220 -40 1221 0
1220 40 -1221 0
1218 1221 0
-1 -2 -1222 0
-1 2 1222 0
1 -2 1222 0
1 2 -1222 0
-1222 -3 -1223 0
-1222 3 1223 0
1222 -3 1223 0
1222 3 -1223 0
-1223 -4 -1224 0
-1223 4 1224 0
1223 -4 1224 0
1223 4 -1224 0
-1224 -6 -1225 0
-1224 6 1225 0
1224 -6 1225 0
1224 6 -1225 0
-1225 -7 -1226 0
-1225 7 1226 0
1225 -7 1226 0
1225 7 -1226 0
-1226 -10 -1227 0
-1226 10 1227 0
1226 -10 1227 0
1226 10 -1227 0
-1227 -11 -1228 0
-1227 11 1228 0
1227 -11 1228 0
1227 11 -1228 0
-1228 -12 -1229 0
-1228 12 1229 0
1228 -12 1229 0
1228 12 -1229 0
-1229 -13 -1230 0
-1229 13 1230 0
1229 -13 1230 0
1229 13 -1230 0
-1230 -14 -1231 0
-1230 14 1231 0
1230 -14 1231 0
1230 14 -1231 0
-1231 -16 -1232 0
-1231 16 1232 0
1231 -16 1232 0
1231 16 -1232 0
-1232 -17 -1233 0
-1232 17 1233 0
1232 -17 1233 0
1232 17 -1233 0
-1233 -20 -1234 0
-1233 20 1234 0
1233 -20 1234 0
1233 20 -1234 0
-1234 -21 -1235 0
-1234 21 1235 0
1234 -21 1235 0
1234 21 -1235 0
-1235 -22 -1236 0
-1235 22 1236 0
1235 -22 1236 0
1235 22 -1236 0
-1236 -23 -1237 0
-1236 23 1237 0
1236 -23 1237 0
1236 23 -1237 0
-1237 -24 -1238 0
-1237 24 1238 0
1237 -24 1238 0
1237 24 -1238 0
-1238 -26 -1239 0
-1238 26 1239 0
1238 -26 1239 0
1238 26 -1239 0
-1239 -27 -1240 0
-1239 27 1240 0
1239 -27 1240 0
1239 27 -1240 0
-1240 -30 -1241 0
-1240 30 1241 0
1240 -30 1241 0
1240 30 -1241 0
-1 -2 -1242 0
-1 2 1242 0
1 -2 1242 0
1 2 -1242 0
-1242 -3 -1243 0
-1242 3 1243 0
1242 -3 1243 0
1242 3 -1243 0
-1243 -4 -1244 0
-1243 4 1244 0
1243 -4 1244 0
1243 4 -1244 0
-1244 -6 -1245 0
-1244 6 1245 0
1244 -6 1245 0
1244 6 -1245 0
-1245 -7 -1246 0
-1245 7 1246 0
1245 -7 1246 0
1245 7 -1246 0
-1246 -10 -1247 0
-1246 10 1247 0
1246 -10 1247 0
1246 10 -1247 0
-1247 -11 -1248 0
-1247 11 1248 0
1247 -11 1248 0
1247 11 -1248 0
-1248 -12 -1249 0
-1248 12 1249 0
1248 -12 1249 0
1248 12 -1249 0
-1249 -13 -1250 0
-1249 13 1250 0
1249 -13 1250 0
1249 13 -1250 0
-1250 -14 -1251 0
-1250 14 1251 0
1250 -14 1251 0
1250 14 -1251 0
-1251 -16 -1252 0
-1251 16 1252 0
1251 -16 1252 0
1251 16 -1252 0
-1252 -17 -1253 0
-1252 17 1253 0
1252 -17 1253 0
1252 17 -1253 0
-1253 -20 -1254 0
-1253 20 1254 0
1253 -20 1254 0
1253 20 -1254 0
-1254 -31 -1255 0
-1254 31 1255 0
1254 -31 1255 0
1254 31 -1255 0
-1255 -32 -1256 0
-1255 32 1256 0
1255 -32 1256 0
1255 32 -1256 0
-1256 -33 -1257 0
-1256 33 1257 0
1256 -33 1257 0
1256 33 -1257 0
-1257 -34 -1258 0
-1257 34 1258 0
1257 -34 1258 0
1257 34 -1258 0
-1258 -36 -1259 0
-1258 36 1259 0
1258 -36 1259 0
1258 36 -1259 0
-1259 -37 -1260 0
-1259 37 1260 0
1259 -37 1260 0
1259 37 -1260 0
-1260 -40 -1261 0
-1260 40 1261 0
1260 -40 1261 0
1260 40 -1261 0
1241 1261 0
-1 -3 -1262 0
-1 3 1262 0
1 -3 1262 0
1 3 -1262 0
-1262 -4 -1263 0
-1262 4 1263 0
1262 -4 1263 0
1262 4 -1263 0
-1263 -5 -1264 0
-1263 5 1264 0
1263 -5 1264 0
1263 5 -1264 0
-1264 -6 -1265 0
-1264 6 1265 0
1264 -6 1265 0
1264 6 -1265 0
-1265 -7 -1266 0
-1265 7 1266 0
1265 -7 1266 0
1265 7 -1266 0
-1266 -10 -1267 0
-1266 10 1267 0
1266 -10 1267 0
1266 10 -1267 0
-1267 -21 -1268 0
-1267 21 1268 0
1267 -21 1268 0
1267 21 -1268 0
-1268 -23 -1269 0
-1268 23 1269 0
1268 -23 1269 0
1268 23 -1269 0
-1269 -24 -1270 0
-1269 24 1270 0
1269 -24 1270 0
1269 24 -1270 0
-1270 -25 -1271 0
-1270 25 1271 0
1270 -25 1271 0
1270 25 -1271 0
-1271 -26 -1272 0
-1271 26 1272 0
1271 -26 1272 0
1271 26 -1272 0
-1272 -27 -1273 0
-1272 27 1273 0
1272 -27 1273 0
1272 27 -1273 0
-1273 -30 -1274 0
-1273 30 1274 0
1273 -30 1274 0
1273 30 -1274 0
-1 -3 -1275 0
-1 3 1275 0
1 -3 1275 0
1 3 -1275 0
-1275 -4 -1276 0
-1275 4 1276 0
1275 -4 1276 0
1275 4 -1276 0
-1276 -5 -1277 0
-1276 5 1277 0
1276 -5 1277 0
1276 5 -1277 0
-1277 -6 -1278 0
-1277 6 1278 0
1277 -6 1278 0
1277 6 -1278 0
-1278 -7 -1279 0
-1278 7 1279 0
1278 -7 1279 0
1278 7 -1279 0
-1279 -10 -1280 0
-1279 10 1280 0
1279 -10 1280 0
1279 10 -1280 0
-1280 -11 -1281 0
-1280 11 1281 0
1280 -11 1281 0
1280 11 -1281 0
-1281 -13 -1282 0
-1281 13 1282 0
1281 -13 1282 0
1281 13 -1282 0
-1282 -14 -1283 0
-1282 14 1283 0
1282 -14 1283 0
1282 14 -1283 0
-1283 -15 -1284 0
-1283 15 1284 0
1283 -15 1284 0
1283 15 -1284 0
-1284 -16 -1285 0
-1284 16 1285 0
1284 -16 1285 0
1284 16 -1285 0
-1285 -17 -1286 0
-1285 17 1286 0
1285 -17 1286 0
1285 17 -1286 0
-1286 -20 -1287 0
-1286 20 1287 0
1286 -20 1287 0
1286 20 -1287 0
-1287 -31 -1288 0
-1287 31 1288 0
1287 -31 1288 0
1287 31 -1288 0
-1288 -33 -1289 0
-1288 33 1289 0
1288 -33 1289 0
1288 33 -1289 0
-1289 -34 -1290 0
-1289 34 1290 0
1289 -34 1290 0
1289 34 -1290 0
-1290 -35 -1291 0
-1290 35 1291 0
1290 -35 1291 0
1290 35 -1291 0
-1291 -36 -1292 0
-1291 36 1292 0
1291 -36 1292 0
1291 36 -1292 0
-1292 -37 -1293 0
-1292 37 1293 0
1292 -37 1293 0
1292 37 -1293 0
-1293 -40 -1294 0
-1293 40 1294 0
1293 -40 1294 0
1293 40 -1294 0
1274 1294 0
-22 -28 -1295 0
-22 28 1295 0
22 -28 1295 0
22 28 -1295 0
-1295 -30 -1296 0
-1295 30 1296 0
1295 -30 1296 0
1295 30 -1296 0
-2 -8 -1297 0
-2 8 1297 0
2 -8 1297 0
2 8 -1297 0
-1297 -10 -1298 0
-1297 10 1298 0
1297 -10 1298 0
1297 10 -1298 0
-1298 -12 -1299 0
-1298 12 1299 0
1298 -12 1299 0
1298 12 -1299 0
-1299 -18 -1300 0
-1299 18 1300 0
1299 -18 1300 0
1299 18 -1300 0
-1300 -20 -1301 0
-1300 20 1301 0
1300 -20 1301 0
1300 20 -1301 0
-1301 -32 -1302 0
-1301 32 1302 0
1301 -32 1302 0
1301 32 -1302 0
-1302 -38 -1303 0
-1302 38 1303 0
1302 -38 1303 0
1302 38 -1303 0
-1303 -40 -1304 0
-1303 40 1304 0
1303 -40 1304 0
1303 40 -1304 0
1296 1304 0
-1 -3 -1305 0
-1 3 1305 0
1 -3 1305 0
1 3 -1305 0
-1305 -8 -1306 0
-1305 8 1306 0
1305 -8 1306 0
1305 8 -1306 0
-1306 -10 -1307 0
-1306 10 1307 0
1306 -10 1307 0
1306 10 -1307 0
-1307 -11 -1308 0
-1307 11 1308 0
1307 -11 1308 0
1307 11 -1308 0
-1308 -13 -1309 0
-1308 13 1309 0
1308 -13 1309 0
1308 13 -1309 0
-1309 -18 -1310 0
-1309 18 1310 0
1309 -18 1310 0
1309 18 -1310 0
-1310 -20 -1311 0
-1310 20 1311 0
1310 -20 1311 0
1310 20 -1311 0
-1311 -21 -1312 0
-1311 21 1312 0
1311 -21 1312 0
1311 21 -1312 0
-1312 -23 -1313 0
-1312 23 1313 0
1312 -23 1313 0
1312 23 -1313 0
-1313 -28 -1314 0
-1313 28 1314 0
1313 -28 1314 0
1313 28 -1314 0
-1314 -30 -1315 0
-1314 30 1315 0
1314 -30 1315 0
1314 30 -1315 0
-1 -3 -1316 0
-1 3 1316 0
1 -3 1316 0
1 3 -1316 0
-1316 -8 -1317 0
-1316 8 1317 0
1316 -8 1317 0
1316 8 -1317 0
-1317 -10 -1318 0
-1317 10 1318 0
1317 -10 1318 0
1317 10 -1318 0
-1318 -31 -1319 0
-1318 31 1319 0
1318 -31 1319 0
1318 31 -1319 0
-1319 -33 -1320 0
-1319 33 1320 0
1319 -33 1320 0
1319 33 -1320 0
-1320 -38 -1321 0
-1320 38 1321 0
1320 -38 1321 0
1320 38 -1321 0
-1321 -40 -1322 0
-1321 40 1322 0
1321 -40 1322 0
1321 40 -1322 0
1315 1322 0
-11 -14 -1323 0
-11 14 1323 0
11 -14 1323 0
11 14 -1323 0
-1323 -16 -1324 0
-1323 16 1324 0
1323 -16 1324 0
1323 16 -1324 0
-1324 -18 -1325 0
-1324 18 1325 0
1324 -18 1325 0
1324 18 -1325 0
-1325 -20 -1326 0
-1325 20 1326 0
1325 -20 1326 0
1325 20 -1326 0
-1326 -21 -1327 0
-1326 21 1327 0
1326 -21 1327 0
1326 21 -1327 0
-1327 -24 -1328 0
-1327 24 1328 0
1327 -24 1328 0
1327 24 -1328 0
-1328 -26 -1329 0
-1328 26 1329 0
1328 -26 1329 0
1328 26 -1329 0
-1329 -28 -1330 0
-1329 28 1330 0
1329 -28 1330 0
1329 28 -1330 0
-1330 -30 -1331 0
-1330 30 1331 0
1330 -30 1331 0
1330 30 -1331 0
-11 -14 -1332 0
-11 14 1332 0
11 -14 1332 0
11 14 -1332 0
-1332 -16 -1333 0
-1332 16 1333 0
1332 -16 1333 0
1332 16 -1333 0
-1333 -18 -1334 0
-1333 18 1334 0
1333 -18 1334 0
1333 18 -1334 0
-1334 -20 -1335 0
-1334 20 1335 0
1334 -20 1335 0
1334 20 -1335 0
-1335 -31 -1336 0
-1335 31 1336 0
1335 -31 1336 0
1335 31 -1336 0
-1336 -34 -1337 0
-1336 34 1337 0
1336 -34 1337 0
1336 34 -1337 0
-1337 -36 -1338 0
-1337 36 1338 0
1337 -36 1338 0
1337 36 -1338 0
-1338 -38 -1339 0
-1338 38 1339 0
1338 -38 1339 0
1338 38 -1339 0
-1339 -40 -1340 0
-1339 40 1340 0
1339 -40 1340 0
1339 40 -1340 0
1331 1340 0
-1 -2 -1341 0
-1 2 1341 0
1 -2 1341 0
1 2 -1341 0
-1341 -5 -1342 0
-1341 5 1342 0
1341 -5 1342 0
1341 5 -1342 0
-1342 -6 -1343 0
-1342 6 1343 0
1342 -6 1343 0
1342 6 -1343 0
-1343 -8 -1344 0
-1343 8 1344 0
1343 -8 1344 0
1343 8 -1344 0
-1344 -10 -1345 0
-1344 10 1345 0
1344 -10 1345 0
1344 10 -1345 0
-1345 -11 -1346 0
-1345 11 1346 0
1345 -11 1346 0
1345 11 -1346 0
-1346 -12 -1347 0
-1346 12 1347 0
1346 -12 1347 0
1346 12 -1347 0
-1347 -15 -1348 0
-1347 15 1348 0
1347 -15 1348 0
1347 15 -1348 0
-1348 -16 -1349 0
-1348 16 1349 0
1348 -16 1349 0
1348 16 -1349 0
-1349 -18 -1350 0
-1349 18 1350 0
1349 -18 1350 0
1349 18 -1350 0
-1350 -20 -1351 0
-1350 20 1351 0
1350 -20 1351 0
1350 20 -1351 0
-1351 -21 -1352 0
-1351 21 1352 0
1351 -21 1352 0
1351 21 -1352 0
-1352 -22 -1353 0
-1352 22 1353 0
1352 -22 1353 0
1352 22 -1353 0
-1353 -25 -1354 0
-1353 25 1354 0
1353 -25 1354 0
1353 25 -1354 0
-1354 -26 -1355 0
-1354 26 1355 0
1354 -26 1355 0
1354 26 -1355 0
-1355 -28 -1356 0
-1355 28 1356 0
1355 -28 1356 0
1355 28 -1356 0
-1356 -30 -1357 0
-1356 30 1357 0
1356 -30 1357 0
1356 30 -1357 0
-11 -12 -1358 0
-11 12 1358 0
11 -12 1358 0
11 12 -1358 0
-1358 -15 -1359 0
-1358 15 1359 0
1358 -15 1359 0
1358 15 -1359 0
-1359 -16 -1360 0
-1359 16 1360 0
1359 -16 1360 0
1359 16 -1360 0
-1360 -18 -1361 0
-1360 18 1361 0
1360 -18 1361 0
1360 18 -1361 0
-1361 -20 -1362 0
-1361 20 1362 0
1361 -20 1362 0
1361 20 -1362 0
-1362 -31 -1363 0
-1362 31 1363 0
1362 -31 1363 0
1362 31 -1363 0
-1363 -32 -1364 0
-1363 32 1364 0
1363 -32 1364 0
1363 32 -1364 0
-1364 -35 -1365 0
-1364 35 1365 0
1364 -35 1365 0
1364 35 -1365 0
-1365 -36 -1366 0
-1365 36 1366 0
1365 -36 1366 0
1365 36 -1366 0
-1366 -38 -1367 0
-1366 38 1367 0
1366 -38 1367 0
1366 38 -1367 0
-1367 -40 -1368 0
-1367 40 1368 0
1367 -40 1368 0
1367 40 -1368 0
1357 1368 0
-11 -13 -1369 0
-11 13 1369 0
11 -13 1369 0
11 13 -1369 0
-1369 -17 -1370 0
-1369 17 1370 0
1369 -17 1370 0
1369 17 -1370 0
-1370 -18 -1371 0
-1370 18 1371 0
1370 -18 1371 0
1370 18 -1371 0
-1371 -20 -1372 0
-1371 20 1372 0
1371 -20 1372 0
1371 20 -1372 0
-1372 -21 -1373 0
-1372 21 1373 0
1372 -21 1373 0
1372 21 -1373 0
-1373 -23 -1374 0
-1373 23 1374 0
1373 -23 1374 0
1373 23 -1374 0
-1374 -27 -1375 0
-1374 27 1375 0
1374 -27 1375 0
1374 27 -1375 0
-1375 -28 -1376 0
-1375 28 1376 0
1375 -28 1376 0
1375 28 -1376 0
-1376 -30 -1377 0
-1376 30 1377 0
1376 -30 1377 0
1376 30 -1377 0
-1 -3 -1378 0
-1 3 1378 0
1 -3 1378 0
1 3 -1378 0
-1378 -7 -1379 0
-1378 7 1379 0
1378 -7 1379 0
1378 7 -1379 0
-1379 -8 -1380 0
-1379 8 1380 0
1379 -8 1380 0
1379 8 -1380 0
-1380 -10 -1381 0
-1380 10 1381 0
1380 -10 1381 0
1380 10 -1381 0
-1381 -11 -1382 0
-1381 11 1382 0
1381 -11 1382 0
1381 11 -1382 0
-1382 -13 -1383 0
-1382 13 1383 0
1382 -13 1383 0
1382 13 -1383 0
-1383 -17 -1384 0
-1383 17 1384 0
1383 -17 1384 0
1383 17 -1384 0
-1384 -18 -1385 0
-1384 18 1385 0
1384 -18 1385 0
1384 18 -1385 0
-1385 -20 -1386 0
-1385 20 1386 0
1385 -20 1386 0
1385 20 -1386 0
-1386 -31 -1387 0
-1386 31 1387 0
1386 -31 1387 0
1386 31 -1387 0
-1387 -33 -1388 0
-1387 33 1388 0
1387 -33 1388 0
1387 33 -1388 0
-1388 -37 -1389 0
-1388 37 1389 0
1388 -37 1389 0
1388 37 -1389 0
-1389 -38 -1390 0
-1389 38 1390 0
1389 -38 1390 0
1389 38 -1390 0
-1390 -40 -1391 0
-1390 40 1391 0
1390 -40 1391 0
1390 40 -1391 0
1377 1391 0
-22 -25 -1392 0
-22 25 1392 0
22 -25 1392 0
22 25 -1392 0
-1392 -27 -1393 0
-1392 27 1393 0
1392 -27 1393 0
1392 27 -1393 0
-1393 -28 -1394 0
-1393 28 1394 0
1393 -28 1394 0
1393 28 -1394 0
-1394 -30 -1395 0
-1394 30 1395 0
1394 -30 1395 0
1394 30 -1395 0
-32 -35 -1396 0
-32 35 1396 0
32 -35 1396 0
32 35 -1396 0
-1396 -37 -1397 0
-1396 37 1397 0
1396 -37 1397 0
1396 37 -1397 0
-1397 -38 -1398 0
-1397 38 1398 0
1397 -38 1398 0
1397 38 -1398 0
-1398 -40 -1399 0
-1398 40 1399 0
1398 -40 1399 0
1398 40 -1399 0
1395 1399 0
-2 -3 -1400 0
-2 3 1400 0
2 -3 1400 0
2 3 -1400 0
-1400 -4 -1401 0
-1400 4 1401 0
1400 -4 1401 0
1400 4 -1401 0
-1401 -5 -1402 0
-1401 5 1402 0
1401 -5 1402 0
1401 5 -1402 0
-1402 -7 -1403 0
-1402 7 1403 0
1402 -7 1403 0
1402 7 -1403 0
-1403 -8 -1404 0
-1403 8 1404 0
1403 -8 1404 0
1403 8 -1404 0
-1404 -10 -1405 0
-1404 10 1405 0
1404 -10 1405 0
1404 10 -1405 0
-1405 -22 -1406 0
-1405 22 1406 0
1405 -22 1406 0
1405 22 -1406 0
-1406 -23 -1407 0
-1406 23 1407 0
1406 -23 1407 0
1406 23 -1407 0
-1407 -24 -1408 0
-1407 24 1408 0
1407 -24 1408 0
1407 24 -1408 0
-1408 -25 -1409 0
-1408 25 1409 0
1408 -25 1409 0
1408 25 -1409 0
-1409 -27 -1410 0
-1409 27 1410 0
1409 -27 1410 0
1409 27 -1410 0
-1410 -28 -1411 0
-1410 28 1411 0
1410 -28 1411 0
1410 28 -1411 0
-1411 -30 -1412 0
-1411 30 1412 0
1411 -30 1412 0
1411 30 -1412 0
-2 -3 -1413 0
-2 3 1413 0
2 -3 1413 0
2 3 -1413 0
-1413 -4 -1414 0
-1413 4 1414 0
1413 -4 1414 0
1413 4 -1414 0
-1414 -5 -1415 0
-1414 5 1415 0
1414 -5 1415 0
1414 5 -1415 0
-1415 -7 -1416 0
-1415 7 1416 0
1415 -7 1416 0
1415 7 -1416 0
-1416 -8 -1417 0
-1416 8 1417 0
1416 -8 1417 0
1416 8 -1417 0
-1417 -10 -1418 0
-1417 10 1418 0
1417 -10 1418 0
1417 10 -1418 0
-1418 -12 -1419 0
-1418 12 1419 0
1418 -12 1419 0
1418 12 -1419 0
-1419 -13 -1420 0
-1419 13 1420 0
1419 -13 1420 0
1419 13 -1420 0
-1420 -14 -1421 0
-1420 14 1421 0
1420 -14 1421 0
1420 14 -1421 0
-1421 -15 -1422 0
-1421 15 1422 0
1421 -15 1422 0
1421 15 -1422 0
-1422 -17 -1423 0
-1422 17 1423 0
1422 -17 1423 0
1422 17 -1423 0
-1423 -18 -1424 0
-1423 18 1424 0
1423 -18 1424 0
1423 18 -1424 0
-1424 -20 -1425 0
-1424 20 1425 0
1424 -20 1425 0
1424 20 -1425 0
-1425 -32 -1426 0
-1425 32 1426 0
1425 -32 1426 0
1425 32 -1426 0
-1426 -33 -1427 0
-1426 33 1427 0
1426 -33 1427 0
1426 33 -1427 0
-1427 -34 -1428 0
-1427 34 1428 0
1427 -34 1428 0
1427 34 -1428 0
-1428 -35 -1429 0
-1428 35 1429 0
1428 -35 1429 0
1428 35 -1429 0
-1429 -37 -1430 0
-1429 37 1430 0
1429 -37 1430 0
1429 37 -1430 0
-1430 -38 -1431 0
-1430 38 1431 0
1430 -38 1431 0
1430 38 -1431 0
-1431 -40 -1432 0
-1431 40 1432 0
1431 -40 1432 0
1431 40 -1432 0
1412 1432 0
-21 -22 -1433 0
-21 22 1433 0
21 -22 1433 0
21 22 -1433 0
-1433 -23 -1434 0
-1433 23 1434 0
1433 -23 1434 0
1433 23 -1434 0
-1434 -26 -1435 0
-1434 26 1435 0
1434 -26 1435 0
1434 26 -1435 0
-1435 -27 -1436 0
-1435 27 1436 0
1435 -27 1436 0
1435 27 -1436 0
-1436 -28 -1437 0
-1436 28 1437 0
1436 -28 1437 0
1436 28 -1437 0
-1437 -30 -1438 0
-1437 30 1438 0
1437 -30 1438 0
1437 30 -1438 0
-11 -12 -1439 0
-11 12 1439 0
11 -12 1439 0
11 12 -1439 0
-1439 -13 -1440 0
-1439 13 1440 0
1439 -13 1440 0
1439 13 -1440 0
-1440 -16 -1441 0
-1440 16 1441 0
1440 -16 1441 0
1440 16 -1441 0
-1441 -17 -1442 0
-1441 17 1442 0
1441 -17 1442 0
1441 17 -1442 0
-1442 -18 -1443 0
-1442 18 1443 0
1442 -18 1443 0
1442 18 -1443 0
-1443 -20 -1444 0
-1443 20 1444 0
1443 -20 1444 0
1443 20 -1444 0
-1444 -31 -1445 0
-1444 31 1445 0
1444 -31 1445 0
1444 31 -1445 0
-1445 -32 -1446 0
-1445 32 1446 0
1445 -32 1446 0
1445 32 -1446 0
-1446 -33 -1447 0
-1446 33 1447 0
1446 -33 1447 0
1446 33 -1447 0
-1447 -36 -1448 0
-1447 36 1448 0
1447 -36 1448 0
1447 36 -1448 0
-1448 -37 -1449 0
-1448 37 1449 0
1448 -37 1449 0
1448 37 -1449 0
-1449 -38 -1450 0
-1449 38 1450 0
1449 -38 1450 0
1449 38 -1450 0
-1450 -40 -1451 0
-1450 40 1451 0
1450 -40 1451 0
1450 40 -1451 0
1438 1451 0
-1 -3 -1452 0
-1 3 1452 0
1 -3 1452 0
1 3 -1452 0
-1452 -4 -1453 0
-1452 4 1453 0
1452 -4 1453 0
1452 4 -1453 0
-1453 -6 -1454 0
-1453 6 1454 0
1453 -6 1454 0
1453 6 -1454 0
-1454 -7 -1455 0
-1454 7 1455 0
1454 -7 1455 0
1454 7 -1455 0
-1455 -8 -1456 0
-1455 8 1456 0
1455 -8 1456 0
1455 8 -1456 0
-1456 -10 -1457 0
-1456 10 1457 0
1456 -10 1457 0
1456 10 -1457 0
-1457 -11 -1458 0
-1457 11 1458 0
1457 -11 1458 0
1457 11 -1458 0
-1458 -13 -1459 0
-1458 13 1459 0
1458 -13 1459 0
1458 13 -1459 0
-1459 -14 -1460 0
-1459 14 1460 0
1459 -14 1460 0
1459 14 -1460 0
-1460 -16 -1461 0
-1460 16 1461 0
1460 -16 1461 0
1460 16 -1461 0
-1461 -17 -1462 0
-1461 17 1462 0
1461 -17 1462 0
1461 17 -1462 0
-1462 -18 -1463 0
-1462 18 1463 0
1462 -18 1463 0
1462 18 -1463 0
-1463 -20 -1464 0
-1463 20 1464 0
1463 -20 1464 0
1463 20 -1464 0
-1464 -21 -1465 0
-1464 21 1465 0
1464 -21 1465 0
1464 21 -1465 0
-1465 -23 -1466 0
-1465 23 1466 0
1465 -23 1466 0
1465 23 -1466 0
-1466 -24 -1467 0
-1466 24 1467 0
1466 -24 1467 0
1466 24 -1467 0
-1467 -26 -1468 0
-1467 26 1468 0
1467 -26 1468 0
1467 26 -1468 0
-1468 -27 -1469 0
-1468 27 1469 0
1468 -27 1469 0
1468 27 -1469 0
-1469 -28 -1470 0
-1469 28 1470 0
1469 -28 1470 0
1469 28 -1470 0
-1470 -30 -1471 0
-1470 30 1471 0
1470 -30 1471 0
1470 30 -1471 0
-31 -33 -1472 0
-31 33 1472 0
31 -33 1472 0
31 33 -1472 0
-1472 -34 -1473 0
-1472 34 1473 0
1472 -34 1473 0
1472 34 -1473 0
-1473 -36 -1474 0
-1473 36 1474 0
1473 -36 1474 0
1473 36 -1474 0
-1474 -37 -1475 0
-1474 37 1475 0
1474 -37 1475 0
1474 37 -1475 0
-1475 -38 -1476 0
-1475 38 1476 0
1475 -38 1476 0
1475 38 -1476 0
-1476 -40 -1477 0
-1476 40 1477 0
1476 -40 1477 0
1476 40 -1477 0
1471 1477 0
-11 -14 -1478 0
-11 14 1478 0
11 -14 1478 0
11 14 -1478 0
-1478 -19 -1479 0
-1478 19 1479 0
1478 -19 1479 0
1478 19 -1479 0
-1479 -20 -1480 0
-1479 20 1480 0
1479 -20 1480 0
1479 20 -1480 0
-1480 -21 -1481 0
-1480 21 1481 0
1480 -21 1481 0
1480 21 -1481 0
-1481 -24 -1482 0
-1481 24 1482 0
1481 -24 1482 0
1481 24 -1482 0
-1482 -29 -1483 0
-1482 29 1483 0
1482 -29 1483 0
1482 29 -1483 0
-1483 -30 -1484 0
-1483 30 1484 0
1483 -30 1484 0
1483 30 -1484 0
-1 -4 -1485 0
-1 4 1485 0
1 -4 1485 0
1 4 -1485 0
-1485 -9 -1486 0
-1485 9 1486 0
1485 -9 1486 0
1485 9 -1486 0
-1486 -10 -1487 0
-1486 10 1487 0
1486 -10 1487 0
1486 10 -1487 0
-1487 -31 -1488 0
-1487 31 1488 0
1487 -31 1488 0
1487 31 -1488 0
-1488 -34 -1489 0
-1488 34 1489 0
1488 -34 1489 0
1488 34 -1489 0
-1489 -39 -1490 0
-1489 39 1490 0
1489 -39 1490 0
1489 39 -1490 0
-1490 -40 -1491 0
-1490 40 1491 0
1490 -40 1491 0
1490 40 -1491 0
1484 1491 0
-2 -6 -1492 0
-2 6 1492 0
2 -6 1492 0
2 6 -1492 0
-1492 -9 -1493 0
-1492 9 1493 0
1492 -9 1493 0
1492 9 -1493 0
-1493 -10 -1494 0
-1493 10 1494 0
1493 -10 1494 0
1493 10 -1494 0
-1494 -12 -1495 0
-1494 12 1495 0
1494 -12 1495 0
1494 12 -1495 0
-1495 -16 -1496 0
-1495 16 1496 0
1495 -16 1496 0
1495 16 -1496 0
-1496 -19 -1497 0
-1496 19 1497 0
1496 -19 1497 0
1496 19 -1497 0
-1497 -20 -1498 0
-1497 20 1498 0
1497 -20 1498 0
1497 20 -1498 0
-1498 -22 -1499 0
-1498 22 1499 0
1498 -22 1499 0
1498 22 -1499 0
-1499 -26 -1500 0
-1499 26 1500 0
1499 -26 1500 0
1499 26 -1500 0
-1500 -29 -1501 0
-1500 29 1501 0
1500 -29 1501 0
1500 29 -1501 0
-1501 -30 -1502 0
-1501 30 1502 0
1501 -30 1502 0
1501 30 -1502 0
-12 -16 -1503 0
-12 16 1503 0
12 -16 1503 0
12 16 -1503 0
-1503 -19 -1504 0
-1503 19 1504 0
1503 -19 1504 0
1503 19 -1504 0
-1504 -20 -1505 0
-1504 20 1505 0
1504 -20 1505 0
1504 20 -1505 0
-1505 -32 -1506 0
-1505 32 1506 0
1505 -32 1506 0
1505 32 -1506 0
-1506 -36 -1507 0
-1506 36 1507 0
1506 -36 1507 0
1506 36 -1507 0
-1507 -39 -1508 0
-1507 39 1508 0
1507 -39 1508 0
1507 39 -1508 0
-1508 -40 -1509 0
-1508 40 1509 0
1508 -40 1509 0
1508 40 -1509 0
1502 1509 0
-1 -2 -1510 0
-1 2 1510 0
1 -2 1510 0
1 2 -1510 0
-1510 -4 -1511 0
-1510 4 1511 0
1510 -4 1511 0
1510 4 -1511 0
-1511 -6 -1512 0
-1511 6 1512 0
1511 -6 1512 0
1511 6 -1512 0
-1512 -9 -1513 0
-1512 9 1513 0
1512 -9 1513 0
1512 9 -1513 0
-1513 -10 -1514 0
-1513 10 1514 0
1513 -10 1514 0
1513 10 -1514 0
-1514 -21 -1515 0
-1514 21 1515 0
1514 -21 1515 0
1514 21 -1515 0
-1515 -22 -1516 0
-1515 22 1516 0
1515 -22 1516 0
1515 22 -1516 0
-1516 -24 -1517 0
-1516 24 1517 0
1516 -24 1517 0
1516 24 -1517 0
-1517 -26 -1518 0
-1517 26 1518 0
1517 -26 1518 0
1517 26 -1518 0
-1518 -29 -1519 0
-1518 29 1519 0
1518 -29 1519 0
1518 29 -1519 0
-1519 -30 -1520 0
-1519 30 1520 0
1519 -30 1520 0
1519 30 -1520 0
-1 -2 -1521 0
-1 2 1521 0
1 -2 1521 0
1 2 -1521 0
-1521 -4 -1522 0
-1521 4 1522 0
1521 -4 1522 0
1521 4 -1522 0
-1522 -6 -1523 0
-1522 6 1523 0
1522 -6 1523 0
1522 6 -1523 0
-1523 -9 -1524 0
-1523 9 1524 0
1523 -9 1524 0
1523 9 -1524 0
-1524 -10 -1525 0
-1524 10 1525 0
1524 -10 1525 0
1524 10 -1525 0
-1525 -31 -1526 0
-1525 31 1526 0
1525 -31 1526 0
1525 31 -1526 0
-1526 -32 -1527 0
-1526 32 1527 0
1526 -32 1527 0
1526 32 -1527 0
-1527 -34 -1528 0
-1527 34 1528 0
1527 -34 1528 0
1527 34 -1528 0
-1528 -36 -1529 0
-1528 36 1529 0
1528 -36 1529 0
1528 36 -1529 0
-1529 -39 -1530 0
-1529 39 1530 0
1529 -39 1530 0
1529 39 -1530 0
-1530 -40 -1531 0
-1530 40 1531 0
1530 -40 1531 0
1530 40 -1531 0
1520 1531 0
-2 -4 -1532 0
-2 4 1532 0
2 -4 1532 0
2 4 -1532 0
-1532 -7 -1533 0
-1532 7 1533 0
1532 -7 1533 0
1532 7 -1533 0
-1533 -9 -1534 0
-1533 9 1534 0
1533 -9 1534 0
1533 9 -1534 0
-1534 -10 -1535 0
-1534 10 1535 0
1534 -10 1535 0
1534 10 -1535 0
-1535 -12 -1536 0
-1535 12 1536 0
1535 -12 1536 0
1535 12 -1536 0
-1536 -14 -1537 0
-1536 14 1537 0
1536 -14 1537 0
1536 14 -1537 0
-1537 -17 -1538 0
-1537 17 1538 0
1537 -17 1538 0
1537 17 -1538 0
-1538 -19 -1539 0
-1538 19 1539 0
1538 -19 1539 0
1538 19 -1539 0
-1539 -20 -1540 0
-1539 20 1540 0
1539 -20 1540 0
1539 20 -1540 0
-1540 -22 -1541 0
-1540 22 1541 0
1540 -22 1541 0
1540 22 -1541 0
-1541 -24 -1542 0
-1541 24 1542 0
1541 -24 1542 0
1541 24 -1542 0
-1542 -27 -1543 0
-1542 27 1543 0
1542 -27 1543 0
1542 27 -1543 0
-1543 -29 -1544 0
-1543 29 1544 0
1543 -29 1544 0
1543 29 -1544 0
-1544 -30 -1545 0
-1544 30 1545 0
1544 -30 1545 0
1544 30 -1545 0
-2 -4 -1546 0
-2 4 1546 0
2 -4 1546 0
2 4 -1546 0
-1546 -7 -1547 0
-1546 7 1547 0
1546 -7 1547 0
1546 7 -1547 0
-1547 -9 -1548 0
-1547 9 1548 0
1547 -9 1548 0
1547 9 -1548 0
-1548 -10 -1549 0
-1548 10 1549 0
1548 -10 1549 0
1548 10 -1549 0
-1549 -32 -1550 0
-1549 32 1550 0
1549 -32 1550 0
1549 32 -1550 0
-1550 -34 -1551 0
-1550 34 1551 0
1550 -34 1551 0
1550 34 -1551 0
-1551 -37 -1552 0
-1551 37 1552 0
1551 -37 1552 0
1551 37 -1552 0
-1552 -39 -1553 0
-1552 39 1553 0
1552 -39 1553 0
1552 39 -1553 0
-1553 -40 -1554 0
-1553 40 1554 0
1553 -40 1554 0
1553 40 -1554 0
1545 1554 0
-11 -12 -1555 0
-11 12 1555 0
11 -12 1555 0
11 12 -1555 0
-1555 -14 -1556 0
-1555 14 1556 0
1555 -14 1556 0
1555 14 -1556 0
-1556 -15 -1557 0
-1556 15 1557 0
1556 -15 1557 0
1556 15 -1557 0
-1557 -17 -1558 0
-1557 17 1558 0
1557 -17 1558 0
1557 17 -1558 0
-1558 -19 -1559 0
-1558 19 1559 0
1558 -19 1559 0
1558 19 -1559 0
-1559 -20 -1560 0
-1559 20 1560 0
1559 -20 1560 0
1559 20 -1560 0
-1560 -21 -1561 0
-1560 21 1561 0
1560 -21 1561 0
1560 21 -1561 0
-1561 -22 -1562 0
-1561 22 1562 0
1561 -22 1562 0
1561 22 -1562 0
-1562 -24 -1563 0
-1562 24 1563 0
1562 -24 1563 0
1562 24 -1563 0
-1563 -25 -1564 0
-1563 25 1564 0
1563 -25 1564 0
1563 25 -1564 0
-1564 -27 -1565 0
-1564 27 1565 0
1564 -27 1565 0
1564 27 -1565 0
-1565 -29 -1566 0
-1565 29 1566 0
1565 -29 1566 0
1565 29 -1566 0
-1566 -30 -1567 0
-1566 30 1567 0
1566 -30 1567 0
1566 30 -1567 0
-1 -2 -1568 0
-1 2 1568 0
1 -2 1568 0
1 2 -1568 0
-1568 -4 -1569 0
-1568 4 1569 0
1568 -4 1569 0
1568 4 -1569 0
-1569 -5 -1570 0
-1569 5 1570 0
1569 -5 1570 0
1569 5 -1570 0
-1570 -7 -1571 0
-1570 7 1571 0
1570 -7 1571 0
1570 7 -1571 0
-1571 -9 -1572 0
-1571 9 1572 0
1571 -9 1572 0
1571 9 -1572 0
-1572 -10 -1573 0
-1572 10 1573 0
1572 -10 1573 0
1572 10 -1573 0
-1573 -31 -1574 0
-1573 31 1574 0
1573 -31 1574 0
1573 31 -1574 0
-1574 -32 -1575 0
-1574 32 1575 0
1574 -32 1575 0
1574 32 -1575 0
-1575 -34 -1576 0
-1575 34 1576 0
1575 -34 1576 0
1575 34 -1576 0
-1576 -35 -1577 0
-1576 35 1577 0
1576 -35 1577 0
1576 35 -1577 0
-1577 -37 -1578 0
-1577 37 1578 0
1577 -37 1578 0
1577 37 -1578 0
-1578 -39 -1579 0
-1578 39 1579 0
1578 -39 1579 0
1578 39 -1579 0
-1579 -40 -1580 0
-1579 40 1580 0
1579 -40 1580 0
1579 40 -1580 0
1567 1580 0
-11 -13 -1581 0
-11 13 1581 0
11 -13 1581 0
11 13 -1581 0
-1581 -16 -1582 0
-1581 16 1582 0
1581 -16 1582 0
1581 16 -1582 0
-1582 -17 -1583 0
-1582 17 1583 0
1582 -17 1583 0
1582 17 -1583 0
-1583 -19 -1584 0
-1583 19 1584 0
1583 -19 1584 0
1583 19 -1584 0
-1584 -20 -1585 0
-1584 20 1585 0
1584 -20 1585 0
1584 20 -1585 0
-1585 -21 -1586 0
-1585 21 1586 0
1585 -21 1586 0
1585 21 -1586 0
-1586 -23 -1587 0
-1586 23 1587 0
1586 -23 1587 0
1586 23 -1587 0
-1587 -26 -1588 0
-1587 26 1588 0
1587 -26 1588 0
1587 26 -1588 0
-1588 -27 -1589 0
-1588 27 1589 0
1588 -27 1589 0
1588 27 -1589 0
-1589 -29 -1590 0
-1589 29 1590 0
1589 -29 1590 0
1589 29 -1590 0
-1590 -30 -1591 0
-1590 30 1591 0
1590 -30 1591 0
1590 30 -1591 0
-31 -33 -1592 0
-31 33 1592 0
31 -33 1592 0
31 33 -1592 0
-1592 -36 -1593 0
-1592 36 1593 0
1592 -36 1593 0
1592 36 -1593 0
-1593 -37 -1594 0
-1593 37 1594 0
1593 -37 1594 0
1593 37 -1594 0
-1594 -39 -1595 0
-1594 39 1595 0
1594 -39 1595 0
1594 39 -1595 0
-1595 -40 -1596 0
-1595 40 1596 0
1595 -40 1596 0
1595 40 -1596 0
1591 1596 0
-12 -13 -1597 0
-12 13 1597 0
12 -13 1597 0
12 13 -1597 0
-1597 -15 -1598 0
-1597 15 1598 0
1597 -15 1598 0
1597 15 -1598 0
-1598 -16 -1599 0
-1598 16 1599 0
1598 -16 1599 0
1598 16 -1599 0
-1599 -17 -1600 0
-1599 17 1600 0
1599 -17 1600 0
1599 17 -1600 0
-1600 -19 -1601 0
-1600 19 1601 0
1600 -19 1601 0
1600 19 -1601 0
-1601 -20 -1602 0
-1601 20 1602 0
1601 -20 1602 0
1601 20 -1602 0
-1602 -22 -1603 0
-1602 22 1603 0
1602 -22 1603 0
1602 22 -1603 0
-1603 -23 -1604 0
-1603 23 1604 0
1603 -23 1604 0
1603 23 -1604 0
-1604 -25 -1605 0
-1604 25 1605 0
1604 -25 1605 0
1604 25 -1605 0
-1605 -26 -1606 0
-1605 26 1606 0
1605 -26 1606 0
1605 26 -1606 0
-1606 -27 -1607 0
-1606 27 1607 0
1606 -27 1607 0
1606 27 -1607 0
-1607 -29 -1608 0
-1607 29 1608 0
1607 -29 1608 0
1607 29 -1608 0
-1608 -30 -1609 0
-1608 30 1609 0
1608 -30 1609 0
1608 30 -1609 0
-12 -13 -1610 0
-12 13 1610 0
12 -13 1610 0
12 13 -1610 0
-1610 -15 -1611 0
-1610 15 1611 0
1610 -15 1611 0
1610 15 -1611 0
-1611 -16 -1612 0
-1611 16 1612 0
1611 -16 1612 0
1611 16 -1612 0
-1612 -17 -1613 0
-1612 17 1613 0
1612 -17 1613 0
1612 17 -1613 0
-1613 -19 -1614 0
-1613 19 1614 0
1613 -19 1614 0
1613 19 -1614 0
-1614 -20 -1615 0
-1614 20 1615 0
1614 -20 1615 0
1614 20 -1615 0
-1615 -32 -1616 0
-1615 32 1616 0
1615 -32 1616 0
1615 32 -1616 0
-1616 -33 -1617 0
-1616 33 1617 0
1616 -33 1617 0
1616 33 -1617 0
-1617 -35 -1618 0
-1617 35 1618 0
1617 -35 1618 0
1617 35 -1618 0
-1618 -36 -1619 0
-1618 36 1619 0
1618 -36 1619 0
1618 36 -1619 0
-1619 -37 -1620 0
-1619 37 1620 0
1619 -37 1620 0
1619 37 -1620 0
-1620 -39 -1621 0
-1620 39 1621 0
1620 -39 1621 0
1620 39 -1621 0
-1621 -40 -1622 0
-1621 40 1622 0
1621 -40 1622 0
1621 40 -1622 0
1609 1622 0
-11 -12 -1623 0
-11 12 1623 0
11 -12 1623 0
11 12 -1623 0
-1623 -14 -1624 0
-1623 14 1624 0
1623 -14 1624 0
1623 14 -1624 0
-1624 -18 -1625 0
-1624 18 1625 0
1624 -18 1625 0
1624 18 -1625 0
-1625 -19 -1626 0
-1625 19 1626 0
1625 -19 1626 0
1625 19 -1626 0
-1626 -20 -1627 0
-1626 20 1627 0
1626 -20 1627 0
1626 20 -1627 0
-1627 -21 -1628 0
-1627 21 1628 0
1627 -21 1628 0
1627 21 -1628 0
-1628 -22 -1629 0
-1628 22 1629 0
1628 -22 1629 0
1628 22 -1629 0
-1629 -24 -1630 0
-1629 24 1630 0
1629 -24 1630 0
1629 24 -1630 0
-1630 -28 -1631 0
-1630 28 1631 0
1630 -28 1631 0
1630 28 -1631 0
-1631 -29 -1632 0
-1631 29 1632 0
1631 -29 1632 0
1631 29 -1632 0
-1632 -30 -1633 0
-1632 30 1633 0
1632 -30 1633 0
1632 30 -1633 0
-31 -32 -1634 0
-31 32 1634 0
31 -32 1634 0
31 32 -1634 0
-1634 -34 -1635 0
-1634 34 1635 0
1634 -34 1635 0
1634 34 -1635 0
-1635 -38 -1636 0
-1635 38 1636 0
1635 -38 1636 0
1635 38 -1636 0
-1636 -39 -1637 0
-1636 39 1637 0
1636 -39 1637 0
1636 39 -1637 0
-1637 -40 -1638 0
-1637 40 1638 0
1637 -40 1638 0
1637 40 -1638 0
1633 1638 0
-2 -3 -1639 0
-2 3 1639 0
2 -3 1639 0
2 3 -1639 0
-1639 -5 -1640 0
-1639 5 1640 0
1639 -5 1640 0
1639 5 -1640 0
-1640 -8 -1641 0
-1640 8 1641 0
1640 -8 1641 0
1640 8 -1641 0
-1641 -9 -1642 0
-1641 9 1642 0
1641 -9 1642 0
1641 9 -1642 0
-1642 -10 -1643 0
-1642 10 1643 0
1642 -10 1643 0
1642 10 -1643 0
-1643 -12 -1644 0
-1643 12 1644 0
1643 -12 1644 0
1643 12 -1644 0
-1644 -13 -1645 0
-1644 13 1645 0
1644 -13 1645 0
1644 13 -1645 0
-1645 -15 -1646 0
-1645 15 1646 0
1645 -15 1646 0
1645 15 -1646 0
-1646 -18 -1647 0
-1646 18 1647 0
1646 -18 1647 0
1646 18 -1647 0
-1647 -19 -1648 0
-1647 19 1648 0
1647 -19 1648 0
1647 19 -1648 0
-1648 -20 -1649 0
-1648 20 1649 0
1648 -20 1649 0
1648 20 -1649 0
-1649 -22 -1650 0
-1649 22 1650 0
1649 -22 1650 0
1649 22 -1650 0
-1650 -23 -1651 0
-1650 23 1651 0
1650 -23 1651 0
1650 23 -1651 0
-1651 -25 -1652 0
-1651 25 1652 0
1651 -25 1652 0
1651 25 -1652 0
-1652 -28 -1653 0
-1652 28 1653 0
1652 -28 1653 0
1652 28 -1653 0
-1653 -29 -1654 0
-1653 29 1654 0
1653 -29 1654 0
1653 29 -1654 0
-1654 -30 -1655 0
-1654 30 1655 0
1654 -30 1655 0
1654 30 -1655 0
-2 -3 -1656 0
-2 3 1656 0
2 -3 1656 0
2 3 -1656 0
-1656 -5 -1657 0
-1656 5 1657 0
1656 -5 1657 0
1656 5 -1657 0
-1657 -8 -1658 0
-1657 8 1658 0
1657 -8 1658 0
1657 8 -1658 0
-1658 -9 -1659 0
-1658 9 1659 0
1658 -9 1659 0
1658 9 -1659 0
-1659 -10 -1660 0
-1659 10 1660 0
1659 -10 1660 0
1659 10 -1660 0
-1660 -12 -1661 0
-1660 12 1661 0
1660 -12 1661 0
1660 12 -1661 0
-1661 -13 -1662 0
-1661 13 1662 0
1661 -13 1662 0
1661 13 -1662 0
-1662 -15 -1663 0
-1662 15 1663 0
1662 -15 1663 0
1662 15 -1663 0
-1663 -18 -1664 0
-1663 18 1664 0
1663 -18 1664 0
1663 18 -1664 0
-1664 -19 -1665 0
-1664 19 1665 0
1664 -19 1665 0
1664 19 -1665 0
-1665 -20 -1666 0
-1665 20 1666 0
1665 -20 1666 0
1665 20 -1666 0
-1666 -32 -1667 0
-1666 32 1667 0
1666 -32 1667 0
1666 32 -1667 0
-1667 -33 -1668 0
-1667 33 1668 0
1667 -33 1668 0
1667 33 -1668 0
-1668 -35 -1669 0
-1668 35 1669 0
1668 -35 1669 0
1668 35 -1669 0
-1669 -38 -1670 0
-1669 38 1670 0
1669 -38 1670 0
1669 38 -1670 0
-1670 -39 -1671 0
-1670 39 1671 0
1670 -39 1671 0
1670 39 -1671 0
-1671 -40 -1672 0
-1671 40 1672 0
1671 -40 1672 0
1671 40 -1672 0
1655 1672 0
-21 -23 -1673 0
-21 23 1673 0
21 -23 1673 0
21 23 -1673 0
-1673 -24 -1674 0
-1673 24 1674 0
1673 -24 1674 0
1673 24 -1674 0
-1674 -25 -1675 0
-1674 25 1675 0
1674 -25 1675 0
1674 25 -1675 0
-1675 -28 -1676 0
-1675 28 1676 0
1675 -28 1676 0
1675 28 -1676 0
-1676 -29 -1677 0
-1676 29 1677 0
1676 -29 1677 0
1676 29 -1677 0
-1677 -30 -1678 0
-1677 30 1678 0
1677 -30 1678 0
1677 30 -1678 0
-11 -13 -1679 0
-11 13 1679 0
11 -13 1679 0
11 13 -1679 0
-1679 -14 -1680 0
-1679 14 1680 0
1679 -14 1680 0
1679 14 -1680 0
-1680 -15 -1681 0
-1680 15 1681 0
1680 -15 1681 0
1680 15 -1681 0
-1681 -18 -1682 0
-1681 18 1682 0
1681 -18 1682 0
1681 18 -1682 0
-1682 -19 -1683 0
-1682 19 1683 0
1682 -19 1683 0
1682 19 -1683 0
-1683 -20 -1684 0
-1683 20 1684 0
1683 -20 1684 0
1683 20 -1684 0
-1684 -31 -1685 0
-1684 31 1685 0
1684 -31 1685 0
1684 31 -1685 0
-1685 -33 -1686 0
-1685 33 1686 0
1685 -33 1686 0
1685 33 -1686 0
-1686 -34 -1687 0
-1686 34 1687 0
1686 -34 1687 0
1686 34 -1687 0
-1687 -35 -1688 0
-1687 35 1688 0
1687 -35 1688 0
1687 35 -1688 0
-1688 -38 -1689 0
-1688 38 1689 0
1688 -38 1689 0
1688 38 -1689 0
-1689 -39 -1690 0
-1689 39 1690 0
1689 -39 1690 0
1689 39 -1690 0
-1690 -40 -1691 0
-1690 40 1691 0
1690 -40 1691 0
1690 40 -1691 0
1678 1691 0
-1 -7 -1692 0
-1 7 1692 0
1 -7 1692 0
1 7 -1692 0
-1692 -8 -1693 0
-1692 8 1693 0
1692 -8 1693 0
1692 8 -1693 0
-1693 -9 -1694 0
-1693 9 1694 0
1693 -9 1694 0
1693 9 -1694 0
-1694 -10 -1695 0
-1694 10 1695 0
1694 -10 1695 0
1694 10 -1695 0
-1695 -21 -1696 0
-1695 21 1696 0
1695 -21 1696 0
1695 21 -1696 0
-1696 -27 -1697 0
-1696 27 1697 0
1696 -27 1697 0
1696 27 -1697 0
-1697 -28 -1698 0
-1697 28 1698 0
1697 -28 1698 0
1697 28 -1698 0
-1698 -29 -1699 0
-1698 29 1699 0
1698 -29 1699 0
1698 29 -1699 0
-1699 -30 -1700 0
-1699 30 1700 0
1699 -30 1700 0
1699 30 -1700 0
-31 -37 -1701 0
-31 37 1701 0
31 -37 1701 0
31 37 -1701 0
-1701 -38 -1702 0
-1701 38 1702 0
1701 -38 1702 0
1701 38 -1702 0
-1702 -39 -1703 0
-1702 39 1703 0
1702 -39 1703 0
1702 39 -1703 0
-1703 -40 -1704 0
-1703 40 1704 0
1703 -40 1704 0
1703 40 -1704 0
1700 1704 0
-21 -22 -1705 0
-21 22 1705 0
21 -22 1705 0
21 22 -1705 0
-1705 -27 -1706 0
-1705 27 1706 0
1705 -27 1706 0
1705 27 -1706 0
-1706 -28 -1707 0
-1706 28 1707 0
1706 -28 1707 0
1706 28 -1707 0
-1707 -29 -1708 0
-1707 29 1708 0
1707 -29 1708 0
1707 29 -1708 0
-1708 -30 -1709 0
-1708 30 1709 0
1708 -30 1709 0
1708 30 -1709 0
-1 -2 -1710 0
-1 2 1710 0
1 -2 1710 0
1 2 -1710 0
-1710 -7 -1711 0
-1710 7 1711 0
1710 -7 1711 0
1710 7 -1711 0
-1711 -8 -1712 0
-1711 8 1712 0
1711 -8 1712 0
1711 8 -1712 0
-1712 -9 -1713 0
-1712 9 1713 0
1712 -9 1713 0
1712 9 -1713 0
-1713 -10 -1714 0
-1713 10 1714 0
1713 -10 1714 0
1713 10 -1714 0
-1714 -11 -1715 0
-1714 11 1715 0
1714 -11 1715 0
1714 11 -1715 0
-1715 -12 -1716 0
-1715 12 1716 0
1715 -12 1716 0
1715 12 -1716 0
-1716 -17 -1717 0
-1716 17 1717 0
1716 -17 1717 0
1716 17 -1717 0
-1717 -18 -1718 0
-1717 18 1718 0
1717 -18 1718 0
1717 18 -1718 0
-1718 -19 -1719 0
-1718 19 1719 0
1718 -19 1719 0
1718 19 -1719 0
-1719 -20 -1720 0
-1719 20 1720 0
1719 -20 1720 0
1719 20 -1720 0
-1720 -31 -1721 0
-1720 31 1721 0
1720 -31 1721 0
1720 31 -1721 0
-1721 -32 -1722 0
-1721 32 1722 0
1721 -32 1722 0
1721 32 -1722 0
-1722 -37 -1723 0
-1722 37 1723 0
1722 -37 1723 0
1722 37 -1723 0
-1723 -38 -1724 0
-1723 38 1724 0
1723 -38 1724 0
1723 38 -1724 0
-1724 -39 -1725 0
-1724 39 1725 0
1724 -39 1725 0
1724 39 -1725 0
-1725 -40 -1726 0
-1725 40 1726 0
1725 -40 1726 0
1725 40 -1726 0
1709 1726 0
-12 -14 -1727 0
-12 14 1727 0
12 -14 1727 0
12 14 -1727 0
-1727 -17 -1728 0
-1727 17 1728 0
1727 -17 1728 0
1727 17 -1728 0
-1728 -18 -1729 0
-1728 18 1729 0
1728 -18 1729 0
1728 18 -1729 0
-1729 -19 -1730 0
-1729 19 1730 0
1729 -19 1730 0
1729 19 -1730 0
-1730 -20 -1731 0
-1730 20 1731 0
1730 -20 1731 0
1730 20 -1731 0
-1731 -22 -1732 0
-1731 22 1732 0
1731 -22 1732 0
1731 22 -1732 0
-1732 -24 -1733 0
-1732 24 1733 0
1732 -24 1733 0
1732 24 -1733 0
-1733 -27 -1734 0
-1733 27 1734 0
1733 -27 1734 0
1733 27 -1734 0
-1734 -28 -1735 0
-1734 28 1735 0
1734 -28 1735 0
1734 28 -1735 0
-1735 -29 -1736 0
-1735 29 1736 0
1735 -29 1736 0
1735 29 -1736 0
-1736 -30 -1737 0
-1736 30 1737 0
1736 -30 1737 0
1736 30 -1737 0
-2 -4 -1738 0
-2 4 1738 0
2 -4 1738 0
2 4 -1738 0
-1738 -7 -1739 0
-1738 7 1739 0
1738 -7 1739 0
1738 7 -1739 0
-1739 -8 -1740 0
-1739 8 1740 0
1739 -8 1740 0
1739 8 -1740 0
-1740 -9 -1741 0
-1740 9 1741 0
1740 -9 1741 0
1740 9 -1741 0
-1741 -10 -1742 0
-1741 10 1742 0
1741 -10 1742 0
1741 10 -1742 0
-1742 -12 -1743 0
-1742 12 1743 0
1742 -12 1743 0
1742 12 -1743 0
-1743 -14 -1744 0
-1743 14 1744 0
1743 -14 1744 0
1743 14 -1744 0
-1744 -17 -1745 0
-1744 17 1745 0
1744 -17 1745 0
1744 17 -1745 0
-1745 -18 -1746 0
-1745 18 1746 0
1745 -18 1746 0
1745 18 -1746 0
-1746 -19 -1747 0
-1746 19 1747 0
1746 -19 1747 0
1746 19 -1747 0
-1747 -20 -1748 0
-1747 20 1748 0
1747 -20 1748 0
1747 20 -1748 0
-1748 -32 -1749 0
-1748 32 1749 0
1748 -32 1749 0
1748 32 -1749 0
-1749 -34 -1750 0
-1749 34 1750 0
1749 -34 1750 0
1749 34 -1750 0
-1750 -37 -1751 0
-1750 37 1751 0
1750 -37 1751 0
1750 37 -1751 0
-1751 -38 -1752 0
-1751 38 1752 0
1751 -38 1752 0
1751 38 -1752 0
-1752 -39 -1753 0
-1752 39 1753 0
1752 -39 1753 0
1752 39 -1753 0
-1753 -40 -1754 0
-1753 40 1754 0
1753 -40 1754 0
1753 40 -1754 0
1737 1754 0
-2 -3 -1755 0
-2 3 1755 0
2 -3 1755 0
2 3 -1755 0
-1755 -4 -1756 0
-1755 4 1756 0
1755 -4 1756 0
1755 4 -1756 0
-1756 -5 -1757 0
-1756 5 1757 0
1756 -5 1757 0
1756 5 -1757 0
-1757 -6 -1758 0
-1757 6 1758 0
1757 -6 1758 0
1757 6 -1758 0
-1758 -7 -1759 0
-1758 7 1759 0
1758 -7 1759 0
1758 7 -1759 0
-1759 -8 -1760 0
-1759 8 1760 0
1759 -8 1760 0
1759 8 -1760 0
-1760 -9 -1761 0
-1760 9 1761 0
1760 -9 1761 0
1760 9 -1761 0
-1761 -10 -1762 0
-1761 10 1762 0
1761 -10 1762 0
1761 10 -1762 0
-1762 -12 -1763 0
-1762 12 1763 0
1762 -12 1763 0
1762 12 -1763 0
-1763 -13 -1764 0
-1763 13 1764 0
1763 -13 1764 0
1763 13 -1764 0
-1764 -14 -1765 0
-1764 14 1765 0
1764 -14 1765 0
1764 14 -1765 0
-1765 -15 -1766 0
-1765 15 1766 0
1765 -15 1766 0
1765 15 -1766 0
-1766 -16 -1767 0
-1766 16 1767 0
1766 -16 1767 0
1766 16 -1767 0
-1767 -17 -1768 0
-1767 17 1768 0
1767 -17 1768 0
1767 17 -1768 0
-1768 -18 -1769 0
-1768 18 1769 0
1768 -18 1769 0
1768 18 -1769 0
-1769 -19 -1770 0
-1769 19 1770 0
1769 -19 1770 0
1769 19 -1770 0
-1770 -20 -1771 0
-1770 20 1771 0
1770 -20 1771 0
1770 20 -1771 0
-1771 -22 -1772 0
-1771 22 1772 0
1771 -22 1772 0
1771 22 -1772 0
-1772 -23 -1773 0
-1772 23 1773 0
1772 -23 1773 0
1772 23 -1773 0
-1773 -24 -1774 0
-1773 24 1774 0
1773 -24 1774 0
1773 24 -1774 0
-1774 -25 -1775 0
-1774 25 1775 0
1774 -25 1775 0
1774 25 -1775 0
-1775 -26 -1776 0
-1775 26 1776 0
1775 -26 1776 0
1775 26 -1776 0
-1776 -27 -1777 0
-1776 27 1777 0
1776 -27 1777 0
1776 27 -1777 0
-1777 -28 -1778 0
-1777 28 1778 0
1777 -28 1778 0
1777 28 -1778 0
-1778 -29 -1779 0
-1778 29 1779 0
1778 -29 1779 0
1778 29 -1779 0
-1779 -30 -1780 0
-1779 30 1780 0
1779 -30 1780 0
1779 30 -1780 0
-32 -33 -1781 0
-32 33 1781 0
32 -33 1781 0
32 33 -1781 0
-1781 -34 -1782 0
-1781 34 1782 0
1781 -34 1782 0
1781 34 -1782 0
-1782 -35 -1783 0
-1782 35 1783 0
1782 -35 1783 0
1782 35 -1783 0
-1783 -36 -1784 0
-1783 36 1784 0
1783 -36 1784 0
1783 36 -1784 0
-1784 -37 -1785 0
-1784 37 1785 0
1784 -37 1785 0
1784 37 -1785 0
-1785 -38 -1786 0
-1785 38 1786 0
1785 -38 1786 0
1785 38 -1786 0
-1786 -39 -1787 0
-1786 39 1787 0
1786 -39 1787 0
1786 39 -1787 0
-1787 -40 -1788 0
-1787 40 1788 0
1787 -40 1788 0
1787 40 -1788 0
1780 1788 0
